minimize
obj: 
subject to
c1_2: -1 Y_tilde_AJ_Vaccines,1_ + 1 N_AJ_Vaccines,(1,_1)_ <= 0
c2_2: -5.477953249999999e6 W_AJ_Vaccines,(1,_1)_ + 1 N_AJ_Vaccines,(1,_1)_ <= 0
c3_2: -1 Y_tilde_AJ_Vaccines,1_ + 1 N_AJ_Vaccines,(1,_2)_ <= 0
c4_2: -1.0955906499999998e7 W_AJ_Vaccines,(1,_2)_ + 1 N_AJ_Vaccines,(1,_2)_ <= 0
c5_2: -1 Y_tilde_AJ_Vaccines,1_ + 1 N_AJ_Vaccines,(1,_3)_ <= 0
c6_2: -1.6433859749999998e7 W_AJ_Vaccines,(1,_3)_ + 1 N_AJ_Vaccines,(1,_3)_ <= 0
c7_2: -1 Y_tilde_AJ_Vaccines,1_ + 1 N_AJ_Vaccines,(1,_4)_ <= 0
c8_2: -2.1911812999999996e7 W_AJ_Vaccines,(1,_4)_ + 1 N_AJ_Vaccines,(1,_4)_ <= 0
c9_2: -1 Y_tilde_AJ_Vaccines,1_ + 1 N_AJ_Vaccines,(1,_5)_ <= 0
c10_2: -2.7389766249999996e7 W_AJ_Vaccines,(1,_5)_ + 1 N_AJ_Vaccines,(1,_5)_ <= 0
c11_2: -1 Y_tilde_AJ_Vaccines,2_ + 1 N_AJ_Vaccines,(2,_2)_ <= 0
c12_2: -5.477953249999999e6 W_AJ_Vaccines,(2,_2)_ + 1 N_AJ_Vaccines,(2,_2)_ <= 0
c13_2: -1 Y_tilde_AJ_Vaccines,2_ + 1 N_AJ_Vaccines,(2,_3)_ <= 0
c14_2: -1.0955906499999998e7 W_AJ_Vaccines,(2,_3)_ + 1 N_AJ_Vaccines,(2,_3)_ <= 0
c15_2: -1 Y_tilde_AJ_Vaccines,2_ + 1 N_AJ_Vaccines,(2,_4)_ <= 0
c16_2: -1.6433859749999998e7 W_AJ_Vaccines,(2,_4)_ + 1 N_AJ_Vaccines,(2,_4)_ <= 0
c17_2: -1 Y_tilde_AJ_Vaccines,2_ + 1 N_AJ_Vaccines,(2,_5)_ <= 0
c18_2: -2.1911812999999996e7 W_AJ_Vaccines,(2,_5)_ + 1 N_AJ_Vaccines,(2,_5)_ <= 0
c19_2: -1 Y_tilde_AJ_Vaccines,2_ + 1 N_AJ_Vaccines,(2,_6)_ <= 0
c20_2: -2.7389766249999996e7 W_AJ_Vaccines,(2,_6)_ + 1 N_AJ_Vaccines,(2,_6)_ <= 0
c21_2: -1 Y_tilde_AJ_Vaccines,3_ + 1 N_AJ_Vaccines,(3,_3)_ <= 0
c22_2: -5.477953249999999e6 W_AJ_Vaccines,(3,_3)_ + 1 N_AJ_Vaccines,(3,_3)_ <= 0
c23_2: -1 Y_tilde_AJ_Vaccines,3_ + 1 N_AJ_Vaccines,(3,_4)_ <= 0
c24_2: -1.0955906499999998e7 W_AJ_Vaccines,(3,_4)_ + 1 N_AJ_Vaccines,(3,_4)_ <= 0
c25_2: -1 Y_tilde_AJ_Vaccines,3_ + 1 N_AJ_Vaccines,(3,_5)_ <= 0
c26_2: -1.6433859749999998e7 W_AJ_Vaccines,(3,_5)_ + 1 N_AJ_Vaccines,(3,_5)_ <= 0
c27_2: -1 Y_tilde_AJ_Vaccines,3_ + 1 N_AJ_Vaccines,(3,_6)_ <= 0
c28_2: -2.1911812999999996e7 W_AJ_Vaccines,(3,_6)_ + 1 N_AJ_Vaccines,(3,_6)_ <= 0
c29_2: -1 Y_tilde_AJ_Vaccines,3_ + 1 N_AJ_Vaccines,(3,_7)_ <= 0
c30_2: -2.7389766249999996e7 W_AJ_Vaccines,(3,_7)_ + 1 N_AJ_Vaccines,(3,_7)_ <= 0
c31_2: -1 Y_tilde_AJ_Vaccines,4_ + 1 N_AJ_Vaccines,(4,_4)_ <= 0
c32_2: -5.477953249999999e6 W_AJ_Vaccines,(4,_4)_ + 1 N_AJ_Vaccines,(4,_4)_ <= 0
c33_2: -1 Y_tilde_AJ_Vaccines,4_ + 1 N_AJ_Vaccines,(4,_5)_ <= 0
c34_2: -1.0955906499999998e7 W_AJ_Vaccines,(4,_5)_ + 1 N_AJ_Vaccines,(4,_5)_ <= 0
c35_2: -1 Y_tilde_AJ_Vaccines,4_ + 1 N_AJ_Vaccines,(4,_6)_ <= 0
c36_2: -1.6433859749999998e7 W_AJ_Vaccines,(4,_6)_ + 1 N_AJ_Vaccines,(4,_6)_ <= 0
c37_2: -1 Y_tilde_AJ_Vaccines,4_ + 1 N_AJ_Vaccines,(4,_7)_ <= 0
c38_2: -2.1911812999999996e7 W_AJ_Vaccines,(4,_7)_ + 1 N_AJ_Vaccines,(4,_7)_ <= 0
c39_2: -1 Y_tilde_AJ_Vaccines,4_ + 1 N_AJ_Vaccines,(4,_8)_ <= 0
c40_2: -2.7389766249999996e7 W_AJ_Vaccines,(4,_8)_ + 1 N_AJ_Vaccines,(4,_8)_ <= 0
c41_2: -1 Y_tilde_AJ_Vaccines,5_ + 1 N_AJ_Vaccines,(5,_5)_ <= 0
c42_2: -5.477953249999999e6 W_AJ_Vaccines,(5,_5)_ + 1 N_AJ_Vaccines,(5,_5)_ <= 0
c43_2: -1 Y_tilde_AJ_Vaccines,5_ + 1 N_AJ_Vaccines,(5,_6)_ <= 0
c44_2: -1.0955906499999998e7 W_AJ_Vaccines,(5,_6)_ + 1 N_AJ_Vaccines,(5,_6)_ <= 0
c45_2: -1 Y_tilde_AJ_Vaccines,5_ + 1 N_AJ_Vaccines,(5,_7)_ <= 0
c46_2: -1.6433859749999998e7 W_AJ_Vaccines,(5,_7)_ + 1 N_AJ_Vaccines,(5,_7)_ <= 0
c47_2: -1 Y_tilde_AJ_Vaccines,5_ + 1 N_AJ_Vaccines,(5,_8)_ <= 0
c48_2: -2.1911812999999996e7 W_AJ_Vaccines,(5,_8)_ + 1 N_AJ_Vaccines,(5,_8)_ <= 0
c49_2: -1 Y_tilde_AJ_Vaccines,5_ + 1 N_AJ_Vaccines,(5,_9)_ <= 0
c50_2: -2.7389766249999996e7 W_AJ_Vaccines,(5,_9)_ + 1 N_AJ_Vaccines,(5,_9)_ <= 0
c51_2: -1 Y_tilde_AJ_Vaccines,6_ + 1 N_AJ_Vaccines,(6,_6)_ <= 0
c52_2: -5.477953249999999e6 W_AJ_Vaccines,(6,_6)_ + 1 N_AJ_Vaccines,(6,_6)_ <= 0
c53_2: -1 Y_tilde_AJ_Vaccines,6_ + 1 N_AJ_Vaccines,(6,_7)_ <= 0
c54_2: -1.0955906499999998e7 W_AJ_Vaccines,(6,_7)_ + 1 N_AJ_Vaccines,(6,_7)_ <= 0
c55_2: -1 Y_tilde_AJ_Vaccines,6_ + 1 N_AJ_Vaccines,(6,_8)_ <= 0
c56_2: -1.6433859749999998e7 W_AJ_Vaccines,(6,_8)_ + 1 N_AJ_Vaccines,(6,_8)_ <= 0
c57_2: -1 Y_tilde_AJ_Vaccines,6_ + 1 N_AJ_Vaccines,(6,_9)_ <= 0
c58_2: -2.1911812999999996e7 W_AJ_Vaccines,(6,_9)_ + 1 N_AJ_Vaccines,(6,_9)_ <= 0
c59_2: -1 Y_tilde_AJ_Vaccines,6_ + 1 N_AJ_Vaccines,(6,_10)_ <= 0
c60_2: -2.7389766249999996e7 W_AJ_Vaccines,(6,_10)_ + 1 N_AJ_Vaccines,(6,_10)_ <= 0
c61_2: -1 Y_tilde_AJ_Vaccines,7_ + 1 N_AJ_Vaccines,(7,_7)_ <= 0
c62_2: -5.477953249999999e6 W_AJ_Vaccines,(7,_7)_ + 1 N_AJ_Vaccines,(7,_7)_ <= 0
c63_2: -1 Y_tilde_AJ_Vaccines,7_ + 1 N_AJ_Vaccines,(7,_8)_ <= 0
c64_2: -1.0955906499999998e7 W_AJ_Vaccines,(7,_8)_ + 1 N_AJ_Vaccines,(7,_8)_ <= 0
c65_2: -1 Y_tilde_AJ_Vaccines,7_ + 1 N_AJ_Vaccines,(7,_9)_ <= 0
c66_2: -1.6433859749999998e7 W_AJ_Vaccines,(7,_9)_ + 1 N_AJ_Vaccines,(7,_9)_ <= 0
c67_2: -1 Y_tilde_AJ_Vaccines,7_ + 1 N_AJ_Vaccines,(7,_10)_ <= 0
c68_2: -2.1911812999999996e7 W_AJ_Vaccines,(7,_10)_ + 1 N_AJ_Vaccines,(7,_10)_ <= 0
c69_2: -1 Y_tilde_AJ_Vaccines,8_ + 1 N_AJ_Vaccines,(8,_8)_ <= 0
c70_2: -5.477953249999999e6 W_AJ_Vaccines,(8,_8)_ + 1 N_AJ_Vaccines,(8,_8)_ <= 0
c71_2: -1 Y_tilde_AJ_Vaccines,8_ + 1 N_AJ_Vaccines,(8,_9)_ <= 0
c72_2: -1.0955906499999998e7 W_AJ_Vaccines,(8,_9)_ + 1 N_AJ_Vaccines,(8,_9)_ <= 0
c73_2: -1 Y_tilde_AJ_Vaccines,8_ + 1 N_AJ_Vaccines,(8,_10)_ <= 0
c74_2: -1.6433859749999998e7 W_AJ_Vaccines,(8,_10)_ + 1 N_AJ_Vaccines,(8,_10)_ <= 0
c75_2: -1 Y_tilde_AJ_Vaccines,9_ + 1 N_AJ_Vaccines,(9,_9)_ <= 0
c76_2: -5.477953249999999e6 W_AJ_Vaccines,(9,_9)_ + 1 N_AJ_Vaccines,(9,_9)_ <= 0
c77_2: -1 Y_tilde_AJ_Vaccines,9_ + 1 N_AJ_Vaccines,(9,_10)_ <= 0
c78_2: -1.0955906499999998e7 W_AJ_Vaccines,(9,_10)_ + 1 N_AJ_Vaccines,(9,_10)_ <= 0
c79_2: -1 Y_tilde_AJ_Vaccines,10_ + 1 N_AJ_Vaccines,(10,_10)_ <= 0
c80_2: -5.477953249999999e6 W_AJ_Vaccines,(10,_10)_ + 1 N_AJ_Vaccines,(10,_10)_ <= 0
c81_2: -1 Y_tilde_BB_NCIPD,1_ + 1 N_BB_NCIPD,(1,_1)_ <= 0
c82_2: -2.478484341666667e6 W_BB_NCIPD,(1,_1)_ + 1 N_BB_NCIPD,(1,_1)_ <= 0
c83_2: -1 Y_tilde_BB_NCIPD,1_ + 1 N_BB_NCIPD,(1,_2)_ <= 0
c84_2: -4.956968683333334e6 W_BB_NCIPD,(1,_2)_ + 1 N_BB_NCIPD,(1,_2)_ <= 0
c85_2: -1 Y_tilde_BB_NCIPD,1_ + 1 N_BB_NCIPD,(1,_3)_ <= 0
c86_2: -7.435453025000001e6 W_BB_NCIPD,(1,_3)_ + 1 N_BB_NCIPD,(1,_3)_ <= 0
c87_2: -1 Y_tilde_BB_NCIPD,1_ + 1 N_BB_NCIPD,(1,_4)_ <= 0
c88_2: -9.913937366666667e6 W_BB_NCIPD,(1,_4)_ + 1 N_BB_NCIPD,(1,_4)_ <= 0
c89_2: -1 Y_tilde_BB_NCIPD,1_ + 1 N_BB_NCIPD,(1,_5)_ <= 0
c90_2: -1.2392421708333332e7 W_BB_NCIPD,(1,_5)_ + 1 N_BB_NCIPD,(1,_5)_ <= 0
c91_2: -1 Y_tilde_BB_NCIPD,2_ + 1 N_BB_NCIPD,(2,_2)_ <= 0
c92_2: -2.478484341666667e6 W_BB_NCIPD,(2,_2)_ + 1 N_BB_NCIPD,(2,_2)_ <= 0
c93_2: -1 Y_tilde_BB_NCIPD,2_ + 1 N_BB_NCIPD,(2,_3)_ <= 0
c94_2: -4.956968683333334e6 W_BB_NCIPD,(2,_3)_ + 1 N_BB_NCIPD,(2,_3)_ <= 0
c95_2: -1 Y_tilde_BB_NCIPD,2_ + 1 N_BB_NCIPD,(2,_4)_ <= 0
c96_2: -7.435453025000001e6 W_BB_NCIPD,(2,_4)_ + 1 N_BB_NCIPD,(2,_4)_ <= 0
c97_2: -1 Y_tilde_BB_NCIPD,2_ + 1 N_BB_NCIPD,(2,_5)_ <= 0
c98_2: -9.913937366666667e6 W_BB_NCIPD,(2,_5)_ + 1 N_BB_NCIPD,(2,_5)_ <= 0
c99_2: -1 Y_tilde_BB_NCIPD,2_ + 1 N_BB_NCIPD,(2,_6)_ <= 0
c100_2: -1.2392421708333332e7 W_BB_NCIPD,(2,_6)_ + 1 N_BB_NCIPD,(2,_6)_ <= 0
c101_2: -1 Y_tilde_BB_NCIPD,3_ + 1 N_BB_NCIPD,(3,_3)_ <= 0
c102_2: -2.478484341666667e6 W_BB_NCIPD,(3,_3)_ + 1 N_BB_NCIPD,(3,_3)_ <= 0
c103_2: -1 Y_tilde_BB_NCIPD,3_ + 1 N_BB_NCIPD,(3,_4)_ <= 0
c104_2: -4.956968683333334e6 W_BB_NCIPD,(3,_4)_ + 1 N_BB_NCIPD,(3,_4)_ <= 0
c105_2: -1 Y_tilde_BB_NCIPD,3_ + 1 N_BB_NCIPD,(3,_5)_ <= 0
c106_2: -7.435453025000001e6 W_BB_NCIPD,(3,_5)_ + 1 N_BB_NCIPD,(3,_5)_ <= 0
c107_2: -1 Y_tilde_BB_NCIPD,3_ + 1 N_BB_NCIPD,(3,_6)_ <= 0
c108_2: -9.913937366666667e6 W_BB_NCIPD,(3,_6)_ + 1 N_BB_NCIPD,(3,_6)_ <= 0
c109_2: -1 Y_tilde_BB_NCIPD,3_ + 1 N_BB_NCIPD,(3,_7)_ <= 0
c110_2: -1.2392421708333332e7 W_BB_NCIPD,(3,_7)_ + 1 N_BB_NCIPD,(3,_7)_ <= 0
c111_2: -1 Y_tilde_BB_NCIPD,4_ + 1 N_BB_NCIPD,(4,_4)_ <= 0
c112_2: -2.478484341666667e6 W_BB_NCIPD,(4,_4)_ + 1 N_BB_NCIPD,(4,_4)_ <= 0
c113_2: -1 Y_tilde_BB_NCIPD,4_ + 1 N_BB_NCIPD,(4,_5)_ <= 0
c114_2: -4.956968683333334e6 W_BB_NCIPD,(4,_5)_ + 1 N_BB_NCIPD,(4,_5)_ <= 0
c115_2: -1 Y_tilde_BB_NCIPD,4_ + 1 N_BB_NCIPD,(4,_6)_ <= 0
c116_2: -7.435453025000001e6 W_BB_NCIPD,(4,_6)_ + 1 N_BB_NCIPD,(4,_6)_ <= 0
c117_2: -1 Y_tilde_BB_NCIPD,4_ + 1 N_BB_NCIPD,(4,_7)_ <= 0
c118_2: -9.913937366666667e6 W_BB_NCIPD,(4,_7)_ + 1 N_BB_NCIPD,(4,_7)_ <= 0
c119_2: -1 Y_tilde_BB_NCIPD,4_ + 1 N_BB_NCIPD,(4,_8)_ <= 0
c120_2: -1.2392421708333332e7 W_BB_NCIPD,(4,_8)_ + 1 N_BB_NCIPD,(4,_8)_ <= 0
c121_2: -1 Y_tilde_BB_NCIPD,5_ + 1 N_BB_NCIPD,(5,_5)_ <= 0
c122_2: -2.478484341666667e6 W_BB_NCIPD,(5,_5)_ + 1 N_BB_NCIPD,(5,_5)_ <= 0
c123_2: -1 Y_tilde_BB_NCIPD,5_ + 1 N_BB_NCIPD,(5,_6)_ <= 0
c124_2: -4.956968683333334e6 W_BB_NCIPD,(5,_6)_ + 1 N_BB_NCIPD,(5,_6)_ <= 0
c125_2: -1 Y_tilde_BB_NCIPD,5_ + 1 N_BB_NCIPD,(5,_7)_ <= 0
c126_2: -7.435453025000001e6 W_BB_NCIPD,(5,_7)_ + 1 N_BB_NCIPD,(5,_7)_ <= 0
c127_2: -1 Y_tilde_BB_NCIPD,5_ + 1 N_BB_NCIPD,(5,_8)_ <= 0
c128_2: -9.913937366666667e6 W_BB_NCIPD,(5,_8)_ + 1 N_BB_NCIPD,(5,_8)_ <= 0
c129_2: -1 Y_tilde_BB_NCIPD,5_ + 1 N_BB_NCIPD,(5,_9)_ <= 0
c130_2: -1.2392421708333332e7 W_BB_NCIPD,(5,_9)_ + 1 N_BB_NCIPD,(5,_9)_ <= 0
c131_2: -1 Y_tilde_BB_NCIPD,6_ + 1 N_BB_NCIPD,(6,_6)_ <= 0
c132_2: -2.478484341666667e6 W_BB_NCIPD,(6,_6)_ + 1 N_BB_NCIPD,(6,_6)_ <= 0
c133_2: -1 Y_tilde_BB_NCIPD,6_ + 1 N_BB_NCIPD,(6,_7)_ <= 0
c134_2: -4.956968683333334e6 W_BB_NCIPD,(6,_7)_ + 1 N_BB_NCIPD,(6,_7)_ <= 0
c135_2: -1 Y_tilde_BB_NCIPD,6_ + 1 N_BB_NCIPD,(6,_8)_ <= 0
c136_2: -7.435453025000001e6 W_BB_NCIPD,(6,_8)_ + 1 N_BB_NCIPD,(6,_8)_ <= 0
c137_2: -1 Y_tilde_BB_NCIPD,6_ + 1 N_BB_NCIPD,(6,_9)_ <= 0
c138_2: -9.913937366666667e6 W_BB_NCIPD,(6,_9)_ + 1 N_BB_NCIPD,(6,_9)_ <= 0
c139_2: -1 Y_tilde_BB_NCIPD,6_ + 1 N_BB_NCIPD,(6,_10)_ <= 0
c140_2: -1.2392421708333332e7 W_BB_NCIPD,(6,_10)_ + 1 N_BB_NCIPD,(6,_10)_ <= 0
c141_2: -1 Y_tilde_BB_NCIPD,7_ + 1 N_BB_NCIPD,(7,_7)_ <= 0
c142_2: -2.478484341666667e6 W_BB_NCIPD,(7,_7)_ + 1 N_BB_NCIPD,(7,_7)_ <= 0
c143_2: -1 Y_tilde_BB_NCIPD,7_ + 1 N_BB_NCIPD,(7,_8)_ <= 0
c144_2: -4.956968683333334e6 W_BB_NCIPD,(7,_8)_ + 1 N_BB_NCIPD,(7,_8)_ <= 0
c145_2: -1 Y_tilde_BB_NCIPD,7_ + 1 N_BB_NCIPD,(7,_9)_ <= 0
c146_2: -7.435453025000001e6 W_BB_NCIPD,(7,_9)_ + 1 N_BB_NCIPD,(7,_9)_ <= 0
c147_2: -1 Y_tilde_BB_NCIPD,7_ + 1 N_BB_NCIPD,(7,_10)_ <= 0
c148_2: -9.913937366666667e6 W_BB_NCIPD,(7,_10)_ + 1 N_BB_NCIPD,(7,_10)_ <= 0
c149_2: -1 Y_tilde_BB_NCIPD,8_ + 1 N_BB_NCIPD,(8,_8)_ <= 0
c150_2: -2.478484341666667e6 W_BB_NCIPD,(8,_8)_ + 1 N_BB_NCIPD,(8,_8)_ <= 0
c151_2: -1 Y_tilde_BB_NCIPD,8_ + 1 N_BB_NCIPD,(8,_9)_ <= 0
c152_2: -4.956968683333334e6 W_BB_NCIPD,(8,_9)_ + 1 N_BB_NCIPD,(8,_9)_ <= 0
c153_2: -1 Y_tilde_BB_NCIPD,8_ + 1 N_BB_NCIPD,(8,_10)_ <= 0
c154_2: -7.435453025000001e6 W_BB_NCIPD,(8,_10)_ + 1 N_BB_NCIPD,(8,_10)_ <= 0
c155_2: -1 Y_tilde_BB_NCIPD,9_ + 1 N_BB_NCIPD,(9,_9)_ <= 0
c156_2: -2.478484341666667e6 W_BB_NCIPD,(9,_9)_ + 1 N_BB_NCIPD,(9,_9)_ <= 0
c157_2: -1 Y_tilde_BB_NCIPD,9_ + 1 N_BB_NCIPD,(9,_10)_ <= 0
c158_2: -4.956968683333334e6 W_BB_NCIPD,(9,_10)_ + 1 N_BB_NCIPD,(9,_10)_ <= 0
c159_2: -1 Y_tilde_BB_NCIPD,10_ + 1 N_BB_NCIPD,(10,_10)_ <= 0
c160_2: -2.478484341666667e6 W_BB_NCIPD,(10,_10)_ + 1 N_BB_NCIPD,(10,_10)_ <= 0
c161_2: -1 Y_tilde_China_National,1_ + 1 N_China_National,(1,_1)_ <= 0
c162_2: -8.0724434175e6 W_China_National,(1,_1)_ + 1 N_China_National,(1,_1)_ <= 0
c163_2: -1 Y_tilde_China_National,1_ + 1 N_China_National,(1,_2)_ <= 0
c164_2: -1.6144886835e7 W_China_National,(1,_2)_ + 1 N_China_National,(1,_2)_ <= 0
c165_2: -1 Y_tilde_China_National,1_ + 1 N_China_National,(1,_3)_ <= 0
c166_2: -2.4217330252499998e7 W_China_National,(1,_3)_ + 1 N_China_National,(1,_3)_ <= 0
c167_2: -1 Y_tilde_China_National,1_ + 1 N_China_National,(1,_4)_ <= 0
c168_2: -3.2289773669999994e7 W_China_National,(1,_4)_ + 1 N_China_National,(1,_4)_ <= 0
c169_2: -1 Y_tilde_China_National,1_ + 1 N_China_National,(1,_5)_ <= 0
c170_2: -4.03622170875e7 W_China_National,(1,_5)_ + 1 N_China_National,(1,_5)_ <= 0
c171_2: -1 Y_tilde_China_National,2_ + 1 N_China_National,(2,_2)_ <= 0
c172_2: -8.0724434175e6 W_China_National,(2,_2)_ + 1 N_China_National,(2,_2)_ <= 0
c173_2: -1 Y_tilde_China_National,2_ + 1 N_China_National,(2,_3)_ <= 0
c174_2: -1.6144886835e7 W_China_National,(2,_3)_ + 1 N_China_National,(2,_3)_ <= 0
c175_2: -1 Y_tilde_China_National,2_ + 1 N_China_National,(2,_4)_ <= 0
c176_2: -2.4217330252499998e7 W_China_National,(2,_4)_ + 1 N_China_National,(2,_4)_ <= 0
c177_2: -1 Y_tilde_China_National,2_ + 1 N_China_National,(2,_5)_ <= 0
c178_2: -3.2289773669999994e7 W_China_National,(2,_5)_ + 1 N_China_National,(2,_5)_ <= 0
c179_2: -1 Y_tilde_China_National,2_ + 1 N_China_National,(2,_6)_ <= 0
c180_2: -4.03622170875e7 W_China_National,(2,_6)_ + 1 N_China_National,(2,_6)_ <= 0
c181_2: -1 Y_tilde_China_National,3_ + 1 N_China_National,(3,_3)_ <= 0
c182_2: -8.0724434175e6 W_China_National,(3,_3)_ + 1 N_China_National,(3,_3)_ <= 0
c183_2: -1 Y_tilde_China_National,3_ + 1 N_China_National,(3,_4)_ <= 0
c184_2: -1.6144886835e7 W_China_National,(3,_4)_ + 1 N_China_National,(3,_4)_ <= 0
c185_2: -1 Y_tilde_China_National,3_ + 1 N_China_National,(3,_5)_ <= 0
c186_2: -2.4217330252499998e7 W_China_National,(3,_5)_ + 1 N_China_National,(3,_5)_ <= 0
c187_2: -1 Y_tilde_China_National,3_ + 1 N_China_National,(3,_6)_ <= 0
c188_2: -3.2289773669999994e7 W_China_National,(3,_6)_ + 1 N_China_National,(3,_6)_ <= 0
c189_2: -1 Y_tilde_China_National,3_ + 1 N_China_National,(3,_7)_ <= 0
c190_2: -4.03622170875e7 W_China_National,(3,_7)_ + 1 N_China_National,(3,_7)_ <= 0
c191_2: -1 Y_tilde_China_National,4_ + 1 N_China_National,(4,_4)_ <= 0
c192_2: -8.0724434175e6 W_China_National,(4,_4)_ + 1 N_China_National,(4,_4)_ <= 0
c193_2: -1 Y_tilde_China_National,4_ + 1 N_China_National,(4,_5)_ <= 0
c194_2: -1.6144886835e7 W_China_National,(4,_5)_ + 1 N_China_National,(4,_5)_ <= 0
c195_2: -1 Y_tilde_China_National,4_ + 1 N_China_National,(4,_6)_ <= 0
c196_2: -2.4217330252499998e7 W_China_National,(4,_6)_ + 1 N_China_National,(4,_6)_ <= 0
c197_2: -1 Y_tilde_China_National,4_ + 1 N_China_National,(4,_7)_ <= 0
c198_2: -3.2289773669999994e7 W_China_National,(4,_7)_ + 1 N_China_National,(4,_7)_ <= 0
c199_2: -1 Y_tilde_China_National,4_ + 1 N_China_National,(4,_8)_ <= 0
c200_2: -4.03622170875e7 W_China_National,(4,_8)_ + 1 N_China_National,(4,_8)_ <= 0
c201_2: -1 Y_tilde_China_National,5_ + 1 N_China_National,(5,_5)_ <= 0
c202_2: -8.0724434175e6 W_China_National,(5,_5)_ + 1 N_China_National,(5,_5)_ <= 0
c203_2: -1 Y_tilde_China_National,5_ + 1 N_China_National,(5,_6)_ <= 0
c204_2: -1.6144886835e7 W_China_National,(5,_6)_ + 1 N_China_National,(5,_6)_ <= 0
c205_2: -1 Y_tilde_China_National,5_ + 1 N_China_National,(5,_7)_ <= 0
c206_2: -2.4217330252499998e7 W_China_National,(5,_7)_ + 1 N_China_National,(5,_7)_ <= 0
c207_2: -1 Y_tilde_China_National,5_ + 1 N_China_National,(5,_8)_ <= 0
c208_2: -3.2289773669999994e7 W_China_National,(5,_8)_ + 1 N_China_National,(5,_8)_ <= 0
c209_2: -1 Y_tilde_China_National,5_ + 1 N_China_National,(5,_9)_ <= 0
c210_2: -4.03622170875e7 W_China_National,(5,_9)_ + 1 N_China_National,(5,_9)_ <= 0
c211_2: -1 Y_tilde_China_National,6_ + 1 N_China_National,(6,_6)_ <= 0
c212_2: -8.0724434175e6 W_China_National,(6,_6)_ + 1 N_China_National,(6,_6)_ <= 0
c213_2: -1 Y_tilde_China_National,6_ + 1 N_China_National,(6,_7)_ <= 0
c214_2: -1.6144886835e7 W_China_National,(6,_7)_ + 1 N_China_National,(6,_7)_ <= 0
c215_2: -1 Y_tilde_China_National,6_ + 1 N_China_National,(6,_8)_ <= 0
c216_2: -2.4217330252499998e7 W_China_National,(6,_8)_ + 1 N_China_National,(6,_8)_ <= 0
c217_2: -1 Y_tilde_China_National,6_ + 1 N_China_National,(6,_9)_ <= 0
c218_2: -3.2289773669999994e7 W_China_National,(6,_9)_ + 1 N_China_National,(6,_9)_ <= 0
c219_2: -1 Y_tilde_China_National,6_ + 1 N_China_National,(6,_10)_ <= 0
c220_2: -4.03622170875e7 W_China_National,(6,_10)_ + 1 N_China_National,(6,_10)_ <= 0
c221_2: -1 Y_tilde_China_National,7_ + 1 N_China_National,(7,_7)_ <= 0
c222_2: -8.0724434175e6 W_China_National,(7,_7)_ + 1 N_China_National,(7,_7)_ <= 0
c223_2: -1 Y_tilde_China_National,7_ + 1 N_China_National,(7,_8)_ <= 0
c224_2: -1.6144886835e7 W_China_National,(7,_8)_ + 1 N_China_National,(7,_8)_ <= 0
c225_2: -1 Y_tilde_China_National,7_ + 1 N_China_National,(7,_9)_ <= 0
c226_2: -2.4217330252499998e7 W_China_National,(7,_9)_ + 1 N_China_National,(7,_9)_ <= 0
c227_2: -1 Y_tilde_China_National,7_ + 1 N_China_National,(7,_10)_ <= 0
c228_2: -3.2289773669999994e7 W_China_National,(7,_10)_ + 1 N_China_National,(7,_10)_ <= 0
c229_2: -1 Y_tilde_China_National,8_ + 1 N_China_National,(8,_8)_ <= 0
c230_2: -8.0724434175e6 W_China_National,(8,_8)_ + 1 N_China_National,(8,_8)_ <= 0
c231_2: -1 Y_tilde_China_National,8_ + 1 N_China_National,(8,_9)_ <= 0
c232_2: -1.6144886835e7 W_China_National,(8,_9)_ + 1 N_China_National,(8,_9)_ <= 0
c233_2: -1 Y_tilde_China_National,8_ + 1 N_China_National,(8,_10)_ <= 0
c234_2: -2.4217330252499998e7 W_China_National,(8,_10)_ + 1 N_China_National,(8,_10)_ <= 0
c235_2: -1 Y_tilde_China_National,9_ + 1 N_China_National,(9,_9)_ <= 0
c236_2: -8.0724434175e6 W_China_National,(9,_9)_ + 1 N_China_National,(9,_9)_ <= 0
c237_2: -1 Y_tilde_China_National,9_ + 1 N_China_National,(9,_10)_ <= 0
c238_2: -1.6144886835e7 W_China_National,(9,_10)_ + 1 N_China_National,(9,_10)_ <= 0
c239_2: -1 Y_tilde_China_National,10_ + 1 N_China_National,(10,_10)_ <= 0
c240_2: -8.0724434175e6 W_China_National,(10,_10)_ + 1 N_China_National,(10,_10)_ <= 0
c241_2: -1 Y_tilde_Bharat_Biotech,1_ + 1 N_Bharat_Biotech,(1,_1)_ <= 0
c242_2: -1.6048253375000004e7 W_Bharat_Biotech,(1,_1)_ + 1 N_Bharat_Biotech,(1,_1)_ <= 0
c243_2: -1 Y_tilde_Bharat_Biotech,1_ + 1 N_Bharat_Biotech,(1,_2)_ <= 0
c244_2: -3.2096506750000004e7 W_Bharat_Biotech,(1,_2)_ + 1 N_Bharat_Biotech,(1,_2)_ <= 0
c245_2: -1 Y_tilde_Bharat_Biotech,1_ + 1 N_Bharat_Biotech,(1,_3)_ <= 0
c246_2: -4.814476012500001e7 W_Bharat_Biotech,(1,_3)_ + 1 N_Bharat_Biotech,(1,_3)_ <= 0
c247_2: -1 Y_tilde_Bharat_Biotech,1_ + 1 N_Bharat_Biotech,(1,_4)_ <= 0
c248_2: -6.419301350000001e7 W_Bharat_Biotech,(1,_4)_ + 1 N_Bharat_Biotech,(1,_4)_ <= 0
c249_2: -1 Y_tilde_Bharat_Biotech,1_ + 1 N_Bharat_Biotech,(1,_5)_ <= 0
c250_2: -8.024126687500001e7 W_Bharat_Biotech,(1,_5)_ + 1 N_Bharat_Biotech,(1,_5)_ <= 0
c251_2: -1 Y_tilde_Bharat_Biotech,2_ + 1 N_Bharat_Biotech,(2,_2)_ <= 0
c252_2: -1.6048253375000004e7 W_Bharat_Biotech,(2,_2)_ + 1 N_Bharat_Biotech,(2,_2)_ <= 0
c253_2: -1 Y_tilde_Bharat_Biotech,2_ + 1 N_Bharat_Biotech,(2,_3)_ <= 0
c254_2: -3.2096506750000004e7 W_Bharat_Biotech,(2,_3)_ + 1 N_Bharat_Biotech,(2,_3)_ <= 0
c255_2: -1 Y_tilde_Bharat_Biotech,2_ + 1 N_Bharat_Biotech,(2,_4)_ <= 0
c256_2: -4.814476012500001e7 W_Bharat_Biotech,(2,_4)_ + 1 N_Bharat_Biotech,(2,_4)_ <= 0
c257_2: -1 Y_tilde_Bharat_Biotech,2_ + 1 N_Bharat_Biotech,(2,_5)_ <= 0
c258_2: -6.419301350000001e7 W_Bharat_Biotech,(2,_5)_ + 1 N_Bharat_Biotech,(2,_5)_ <= 0
c259_2: -1 Y_tilde_Bharat_Biotech,2_ + 1 N_Bharat_Biotech,(2,_6)_ <= 0
c260_2: -8.024126687500001e7 W_Bharat_Biotech,(2,_6)_ + 1 N_Bharat_Biotech,(2,_6)_ <= 0
c261_2: -1 Y_tilde_Bharat_Biotech,3_ + 1 N_Bharat_Biotech,(3,_3)_ <= 0
c262_2: -1.6048253375000004e7 W_Bharat_Biotech,(3,_3)_ + 1 N_Bharat_Biotech,(3,_3)_ <= 0
c263_2: -1 Y_tilde_Bharat_Biotech,3_ + 1 N_Bharat_Biotech,(3,_4)_ <= 0
c264_2: -3.2096506750000004e7 W_Bharat_Biotech,(3,_4)_ + 1 N_Bharat_Biotech,(3,_4)_ <= 0
c265_2: -1 Y_tilde_Bharat_Biotech,3_ + 1 N_Bharat_Biotech,(3,_5)_ <= 0
c266_2: -4.814476012500001e7 W_Bharat_Biotech,(3,_5)_ + 1 N_Bharat_Biotech,(3,_5)_ <= 0
c267_2: -1 Y_tilde_Bharat_Biotech,3_ + 1 N_Bharat_Biotech,(3,_6)_ <= 0
c268_2: -6.419301350000001e7 W_Bharat_Biotech,(3,_6)_ + 1 N_Bharat_Biotech,(3,_6)_ <= 0
c269_2: -1 Y_tilde_Bharat_Biotech,3_ + 1 N_Bharat_Biotech,(3,_7)_ <= 0
c270_2: -8.024126687500001e7 W_Bharat_Biotech,(3,_7)_ + 1 N_Bharat_Biotech,(3,_7)_ <= 0
c271_2: -1 Y_tilde_Bharat_Biotech,4_ + 1 N_Bharat_Biotech,(4,_4)_ <= 0
c272_2: -1.6048253375000004e7 W_Bharat_Biotech,(4,_4)_ + 1 N_Bharat_Biotech,(4,_4)_ <= 0
c273_2: -1 Y_tilde_Bharat_Biotech,4_ + 1 N_Bharat_Biotech,(4,_5)_ <= 0
c274_2: -3.2096506750000004e7 W_Bharat_Biotech,(4,_5)_ + 1 N_Bharat_Biotech,(4,_5)_ <= 0
c275_2: -1 Y_tilde_Bharat_Biotech,4_ + 1 N_Bharat_Biotech,(4,_6)_ <= 0
c276_2: -4.814476012500001e7 W_Bharat_Biotech,(4,_6)_ + 1 N_Bharat_Biotech,(4,_6)_ <= 0
c277_2: -1 Y_tilde_Bharat_Biotech,4_ + 1 N_Bharat_Biotech,(4,_7)_ <= 0
c278_2: -6.419301350000001e7 W_Bharat_Biotech,(4,_7)_ + 1 N_Bharat_Biotech,(4,_7)_ <= 0
c279_2: -1 Y_tilde_Bharat_Biotech,4_ + 1 N_Bharat_Biotech,(4,_8)_ <= 0
c280_2: -8.024126687500001e7 W_Bharat_Biotech,(4,_8)_ + 1 N_Bharat_Biotech,(4,_8)_ <= 0
c281_2: -1 Y_tilde_Bharat_Biotech,5_ + 1 N_Bharat_Biotech,(5,_5)_ <= 0
c282_2: -1.6048253375000004e7 W_Bharat_Biotech,(5,_5)_ + 1 N_Bharat_Biotech,(5,_5)_ <= 0
c283_2: -1 Y_tilde_Bharat_Biotech,5_ + 1 N_Bharat_Biotech,(5,_6)_ <= 0
c284_2: -3.2096506750000004e7 W_Bharat_Biotech,(5,_6)_ + 1 N_Bharat_Biotech,(5,_6)_ <= 0
c285_2: -1 Y_tilde_Bharat_Biotech,5_ + 1 N_Bharat_Biotech,(5,_7)_ <= 0
c286_2: -4.814476012500001e7 W_Bharat_Biotech,(5,_7)_ + 1 N_Bharat_Biotech,(5,_7)_ <= 0
c287_2: -1 Y_tilde_Bharat_Biotech,5_ + 1 N_Bharat_Biotech,(5,_8)_ <= 0
c288_2: -6.419301350000001e7 W_Bharat_Biotech,(5,_8)_ + 1 N_Bharat_Biotech,(5,_8)_ <= 0
c289_2: -1 Y_tilde_Bharat_Biotech,5_ + 1 N_Bharat_Biotech,(5,_9)_ <= 0
c290_2: -8.024126687500001e7 W_Bharat_Biotech,(5,_9)_ + 1 N_Bharat_Biotech,(5,_9)_ <= 0
c291_2: -1 Y_tilde_Bharat_Biotech,6_ + 1 N_Bharat_Biotech,(6,_6)_ <= 0
c292_2: -1.6048253375000004e7 W_Bharat_Biotech,(6,_6)_ + 1 N_Bharat_Biotech,(6,_6)_ <= 0
c293_2: -1 Y_tilde_Bharat_Biotech,6_ + 1 N_Bharat_Biotech,(6,_7)_ <= 0
c294_2: -3.2096506750000004e7 W_Bharat_Biotech,(6,_7)_ + 1 N_Bharat_Biotech,(6,_7)_ <= 0
c295_2: -1 Y_tilde_Bharat_Biotech,6_ + 1 N_Bharat_Biotech,(6,_8)_ <= 0
c296_2: -4.814476012500001e7 W_Bharat_Biotech,(6,_8)_ + 1 N_Bharat_Biotech,(6,_8)_ <= 0
c297_2: -1 Y_tilde_Bharat_Biotech,6_ + 1 N_Bharat_Biotech,(6,_9)_ <= 0
c298_2: -6.419301350000001e7 W_Bharat_Biotech,(6,_9)_ + 1 N_Bharat_Biotech,(6,_9)_ <= 0
c299_2: -1 Y_tilde_Bharat_Biotech,6_ + 1 N_Bharat_Biotech,(6,_10)_ <= 0
c300_2: -8.024126687500001e7 W_Bharat_Biotech,(6,_10)_ + 1 N_Bharat_Biotech,(6,_10)_ <= 0
c301_2: -1 Y_tilde_Bharat_Biotech,7_ + 1 N_Bharat_Biotech,(7,_7)_ <= 0
c302_2: -1.6048253375000004e7 W_Bharat_Biotech,(7,_7)_ + 1 N_Bharat_Biotech,(7,_7)_ <= 0
c303_2: -1 Y_tilde_Bharat_Biotech,7_ + 1 N_Bharat_Biotech,(7,_8)_ <= 0
c304_2: -3.2096506750000004e7 W_Bharat_Biotech,(7,_8)_ + 1 N_Bharat_Biotech,(7,_8)_ <= 0
c305_2: -1 Y_tilde_Bharat_Biotech,7_ + 1 N_Bharat_Biotech,(7,_9)_ <= 0
c306_2: -4.814476012500001e7 W_Bharat_Biotech,(7,_9)_ + 1 N_Bharat_Biotech,(7,_9)_ <= 0
c307_2: -1 Y_tilde_Bharat_Biotech,7_ + 1 N_Bharat_Biotech,(7,_10)_ <= 0
c308_2: -6.419301350000001e7 W_Bharat_Biotech,(7,_10)_ + 1 N_Bharat_Biotech,(7,_10)_ <= 0
c309_2: -1 Y_tilde_Bharat_Biotech,8_ + 1 N_Bharat_Biotech,(8,_8)_ <= 0
c310_2: -1.6048253375000004e7 W_Bharat_Biotech,(8,_8)_ + 1 N_Bharat_Biotech,(8,_8)_ <= 0
c311_2: -1 Y_tilde_Bharat_Biotech,8_ + 1 N_Bharat_Biotech,(8,_9)_ <= 0
c312_2: -3.2096506750000004e7 W_Bharat_Biotech,(8,_9)_ + 1 N_Bharat_Biotech,(8,_9)_ <= 0
c313_2: -1 Y_tilde_Bharat_Biotech,8_ + 1 N_Bharat_Biotech,(8,_10)_ <= 0
c314_2: -4.814476012500001e7 W_Bharat_Biotech,(8,_10)_ + 1 N_Bharat_Biotech,(8,_10)_ <= 0
c315_2: -1 Y_tilde_Bharat_Biotech,9_ + 1 N_Bharat_Biotech,(9,_9)_ <= 0
c316_2: -1.6048253375000004e7 W_Bharat_Biotech,(9,_9)_ + 1 N_Bharat_Biotech,(9,_9)_ <= 0
c317_2: -1 Y_tilde_Bharat_Biotech,9_ + 1 N_Bharat_Biotech,(9,_10)_ <= 0
c318_2: -3.2096506750000004e7 W_Bharat_Biotech,(9,_10)_ + 1 N_Bharat_Biotech,(9,_10)_ <= 0
c319_2: -1 Y_tilde_Bharat_Biotech,10_ + 1 N_Bharat_Biotech,(10,_10)_ <= 0
c320_2: -1.6048253375000004e7 W_Bharat_Biotech,(10,_10)_ + 1 N_Bharat_Biotech,(10,_10)_ <= 0
c321_2: -1 Y_tilde_Bilthoven,1_ + 1 N_Bilthoven,(1,_1)_ <= 0
c322_2: -9.463826166666666e6 W_Bilthoven,(1,_1)_ + 1 N_Bilthoven,(1,_1)_ <= 0
c323_2: -1 Y_tilde_Bilthoven,1_ + 1 N_Bilthoven,(1,_2)_ <= 0
c324_2: -1.8927652333333332e7 W_Bilthoven,(1,_2)_ + 1 N_Bilthoven,(1,_2)_ <= 0
c325_2: -1 Y_tilde_Bilthoven,1_ + 1 N_Bilthoven,(1,_3)_ <= 0
c326_2: -2.83914785e7 W_Bilthoven,(1,_3)_ + 1 N_Bilthoven,(1,_3)_ <= 0
c327_2: -1 Y_tilde_Bilthoven,1_ + 1 N_Bilthoven,(1,_4)_ <= 0
c328_2: -3.7855304666666664e7 W_Bilthoven,(1,_4)_ + 1 N_Bilthoven,(1,_4)_ <= 0
c329_2: -1 Y_tilde_Bilthoven,1_ + 1 N_Bilthoven,(1,_5)_ <= 0
c330_2: -4.731913083333333e7 W_Bilthoven,(1,_5)_ + 1 N_Bilthoven,(1,_5)_ <= 0
c331_2: -1 Y_tilde_Bilthoven,2_ + 1 N_Bilthoven,(2,_2)_ <= 0
c332_2: -9.463826166666666e6 W_Bilthoven,(2,_2)_ + 1 N_Bilthoven,(2,_2)_ <= 0
c333_2: -1 Y_tilde_Bilthoven,2_ + 1 N_Bilthoven,(2,_3)_ <= 0
c334_2: -1.8927652333333332e7 W_Bilthoven,(2,_3)_ + 1 N_Bilthoven,(2,_3)_ <= 0
c335_2: -1 Y_tilde_Bilthoven,2_ + 1 N_Bilthoven,(2,_4)_ <= 0
c336_2: -2.83914785e7 W_Bilthoven,(2,_4)_ + 1 N_Bilthoven,(2,_4)_ <= 0
c337_2: -1 Y_tilde_Bilthoven,2_ + 1 N_Bilthoven,(2,_5)_ <= 0
c338_2: -3.7855304666666664e7 W_Bilthoven,(2,_5)_ + 1 N_Bilthoven,(2,_5)_ <= 0
c339_2: -1 Y_tilde_Bilthoven,2_ + 1 N_Bilthoven,(2,_6)_ <= 0
c340_2: -4.731913083333333e7 W_Bilthoven,(2,_6)_ + 1 N_Bilthoven,(2,_6)_ <= 0
c341_2: -1 Y_tilde_Bilthoven,3_ + 1 N_Bilthoven,(3,_3)_ <= 0
c342_2: -9.463826166666666e6 W_Bilthoven,(3,_3)_ + 1 N_Bilthoven,(3,_3)_ <= 0
c343_2: -1 Y_tilde_Bilthoven,3_ + 1 N_Bilthoven,(3,_4)_ <= 0
c344_2: -1.8927652333333332e7 W_Bilthoven,(3,_4)_ + 1 N_Bilthoven,(3,_4)_ <= 0
c345_2: -1 Y_tilde_Bilthoven,3_ + 1 N_Bilthoven,(3,_5)_ <= 0
c346_2: -2.83914785e7 W_Bilthoven,(3,_5)_ + 1 N_Bilthoven,(3,_5)_ <= 0
c347_2: -1 Y_tilde_Bilthoven,3_ + 1 N_Bilthoven,(3,_6)_ <= 0
c348_2: -3.7855304666666664e7 W_Bilthoven,(3,_6)_ + 1 N_Bilthoven,(3,_6)_ <= 0
c349_2: -1 Y_tilde_Bilthoven,3_ + 1 N_Bilthoven,(3,_7)_ <= 0
c350_2: -4.731913083333333e7 W_Bilthoven,(3,_7)_ + 1 N_Bilthoven,(3,_7)_ <= 0
c351_2: -1 Y_tilde_Bilthoven,4_ + 1 N_Bilthoven,(4,_4)_ <= 0
c352_2: -9.463826166666666e6 W_Bilthoven,(4,_4)_ + 1 N_Bilthoven,(4,_4)_ <= 0
c353_2: -1 Y_tilde_Bilthoven,4_ + 1 N_Bilthoven,(4,_5)_ <= 0
c354_2: -1.8927652333333332e7 W_Bilthoven,(4,_5)_ + 1 N_Bilthoven,(4,_5)_ <= 0
c355_2: -1 Y_tilde_Bilthoven,4_ + 1 N_Bilthoven,(4,_6)_ <= 0
c356_2: -2.83914785e7 W_Bilthoven,(4,_6)_ + 1 N_Bilthoven,(4,_6)_ <= 0
c357_2: -1 Y_tilde_Bilthoven,4_ + 1 N_Bilthoven,(4,_7)_ <= 0
c358_2: -3.7855304666666664e7 W_Bilthoven,(4,_7)_ + 1 N_Bilthoven,(4,_7)_ <= 0
c359_2: -1 Y_tilde_Bilthoven,4_ + 1 N_Bilthoven,(4,_8)_ <= 0
c360_2: -4.731913083333333e7 W_Bilthoven,(4,_8)_ + 1 N_Bilthoven,(4,_8)_ <= 0
c361_2: -1 Y_tilde_Bilthoven,5_ + 1 N_Bilthoven,(5,_5)_ <= 0
c362_2: -9.463826166666666e6 W_Bilthoven,(5,_5)_ + 1 N_Bilthoven,(5,_5)_ <= 0
c363_2: -1 Y_tilde_Bilthoven,5_ + 1 N_Bilthoven,(5,_6)_ <= 0
c364_2: -1.8927652333333332e7 W_Bilthoven,(5,_6)_ + 1 N_Bilthoven,(5,_6)_ <= 0
c365_2: -1 Y_tilde_Bilthoven,5_ + 1 N_Bilthoven,(5,_7)_ <= 0
c366_2: -2.83914785e7 W_Bilthoven,(5,_7)_ + 1 N_Bilthoven,(5,_7)_ <= 0
c367_2: -1 Y_tilde_Bilthoven,5_ + 1 N_Bilthoven,(5,_8)_ <= 0
c368_2: -3.7855304666666664e7 W_Bilthoven,(5,_8)_ + 1 N_Bilthoven,(5,_8)_ <= 0
c369_2: -1 Y_tilde_Bilthoven,5_ + 1 N_Bilthoven,(5,_9)_ <= 0
c370_2: -4.731913083333333e7 W_Bilthoven,(5,_9)_ + 1 N_Bilthoven,(5,_9)_ <= 0
c371_2: -1 Y_tilde_Bilthoven,6_ + 1 N_Bilthoven,(6,_6)_ <= 0
c372_2: -9.463826166666666e6 W_Bilthoven,(6,_6)_ + 1 N_Bilthoven,(6,_6)_ <= 0
c373_2: -1 Y_tilde_Bilthoven,6_ + 1 N_Bilthoven,(6,_7)_ <= 0
c374_2: -1.8927652333333332e7 W_Bilthoven,(6,_7)_ + 1 N_Bilthoven,(6,_7)_ <= 0
c375_2: -1 Y_tilde_Bilthoven,6_ + 1 N_Bilthoven,(6,_8)_ <= 0
c376_2: -2.83914785e7 W_Bilthoven,(6,_8)_ + 1 N_Bilthoven,(6,_8)_ <= 0
c377_2: -1 Y_tilde_Bilthoven,6_ + 1 N_Bilthoven,(6,_9)_ <= 0
c378_2: -3.7855304666666664e7 W_Bilthoven,(6,_9)_ + 1 N_Bilthoven,(6,_9)_ <= 0
c379_2: -1 Y_tilde_Bilthoven,6_ + 1 N_Bilthoven,(6,_10)_ <= 0
c380_2: -4.731913083333333e7 W_Bilthoven,(6,_10)_ + 1 N_Bilthoven,(6,_10)_ <= 0
c381_2: -1 Y_tilde_Bilthoven,7_ + 1 N_Bilthoven,(7,_7)_ <= 0
c382_2: -9.463826166666666e6 W_Bilthoven,(7,_7)_ + 1 N_Bilthoven,(7,_7)_ <= 0
c383_2: -1 Y_tilde_Bilthoven,7_ + 1 N_Bilthoven,(7,_8)_ <= 0
c384_2: -1.8927652333333332e7 W_Bilthoven,(7,_8)_ + 1 N_Bilthoven,(7,_8)_ <= 0
c385_2: -1 Y_tilde_Bilthoven,7_ + 1 N_Bilthoven,(7,_9)_ <= 0
c386_2: -2.83914785e7 W_Bilthoven,(7,_9)_ + 1 N_Bilthoven,(7,_9)_ <= 0
c387_2: -1 Y_tilde_Bilthoven,7_ + 1 N_Bilthoven,(7,_10)_ <= 0
c388_2: -3.7855304666666664e7 W_Bilthoven,(7,_10)_ + 1 N_Bilthoven,(7,_10)_ <= 0
c389_2: -1 Y_tilde_Bilthoven,8_ + 1 N_Bilthoven,(8,_8)_ <= 0
c390_2: -9.463826166666666e6 W_Bilthoven,(8,_8)_ + 1 N_Bilthoven,(8,_8)_ <= 0
c391_2: -1 Y_tilde_Bilthoven,8_ + 1 N_Bilthoven,(8,_9)_ <= 0
c392_2: -1.8927652333333332e7 W_Bilthoven,(8,_9)_ + 1 N_Bilthoven,(8,_9)_ <= 0
c393_2: -1 Y_tilde_Bilthoven,8_ + 1 N_Bilthoven,(8,_10)_ <= 0
c394_2: -2.83914785e7 W_Bilthoven,(8,_10)_ + 1 N_Bilthoven,(8,_10)_ <= 0
c395_2: -1 Y_tilde_Bilthoven,9_ + 1 N_Bilthoven,(9,_9)_ <= 0
c396_2: -9.463826166666666e6 W_Bilthoven,(9,_9)_ + 1 N_Bilthoven,(9,_9)_ <= 0
c397_2: -1 Y_tilde_Bilthoven,9_ + 1 N_Bilthoven,(9,_10)_ <= 0
c398_2: -1.8927652333333332e7 W_Bilthoven,(9,_10)_ + 1 N_Bilthoven,(9,_10)_ <= 0
c399_2: -1 Y_tilde_Bilthoven,10_ + 1 N_Bilthoven,(10,_10)_ <= 0
c400_2: -9.463826166666666e6 W_Bilthoven,(10,_10)_ + 1 N_Bilthoven,(10,_10)_ <= 0
c401_2: -1 Y_tilde_Biological_E,1_ + 1 N_Biological_E,(1,_1)_ <= 0
c402_2: -2.9494754604218755e7 W_Biological_E,(1,_1)_ + 1 N_Biological_E,(1,_1)_ <= 0
c403_2: -1 Y_tilde_Biological_E,1_ + 1 N_Biological_E,(1,_2)_ <= 0
c404_2: -5.898950920843751e7 W_Biological_E,(1,_2)_ + 1 N_Biological_E,(1,_2)_ <= 0
c405_2: -1 Y_tilde_Biological_E,1_ + 1 N_Biological_E,(1,_3)_ <= 0
c406_2: -8.848426381265627e7 W_Biological_E,(1,_3)_ + 1 N_Biological_E,(1,_3)_ <= 0
c407_2: -1 Y_tilde_Biological_E,1_ + 1 N_Biological_E,(1,_4)_ <= 0
c408_2: -1.1797901841687502e8 W_Biological_E,(1,_4)_ + 1 N_Biological_E,(1,_4)_ <= 0
c409_2: -1 Y_tilde_Biological_E,1_ + 1 N_Biological_E,(1,_5)_ <= 0
c410_2: -1.474737730210938e8 W_Biological_E,(1,_5)_ + 1 N_Biological_E,(1,_5)_ <= 0
c411_2: -1 Y_tilde_Biological_E,2_ + 1 N_Biological_E,(2,_2)_ <= 0
c412_2: -2.9494754604218755e7 W_Biological_E,(2,_2)_ + 1 N_Biological_E,(2,_2)_ <= 0
c413_2: -1 Y_tilde_Biological_E,2_ + 1 N_Biological_E,(2,_3)_ <= 0
c414_2: -5.898950920843751e7 W_Biological_E,(2,_3)_ + 1 N_Biological_E,(2,_3)_ <= 0
c415_2: -1 Y_tilde_Biological_E,2_ + 1 N_Biological_E,(2,_4)_ <= 0
c416_2: -8.848426381265627e7 W_Biological_E,(2,_4)_ + 1 N_Biological_E,(2,_4)_ <= 0
c417_2: -1 Y_tilde_Biological_E,2_ + 1 N_Biological_E,(2,_5)_ <= 0
c418_2: -1.1797901841687502e8 W_Biological_E,(2,_5)_ + 1 N_Biological_E,(2,_5)_ <= 0
c419_2: -1 Y_tilde_Biological_E,2_ + 1 N_Biological_E,(2,_6)_ <= 0
c420_2: -1.474737730210938e8 W_Biological_E,(2,_6)_ + 1 N_Biological_E,(2,_6)_ <= 0
c421_2: -1 Y_tilde_Biological_E,3_ + 1 N_Biological_E,(3,_3)_ <= 0
c422_2: -2.9494754604218755e7 W_Biological_E,(3,_3)_ + 1 N_Biological_E,(3,_3)_ <= 0
c423_2: -1 Y_tilde_Biological_E,3_ + 1 N_Biological_E,(3,_4)_ <= 0
c424_2: -5.898950920843751e7 W_Biological_E,(3,_4)_ + 1 N_Biological_E,(3,_4)_ <= 0
c425_2: -1 Y_tilde_Biological_E,3_ + 1 N_Biological_E,(3,_5)_ <= 0
c426_2: -8.848426381265627e7 W_Biological_E,(3,_5)_ + 1 N_Biological_E,(3,_5)_ <= 0
c427_2: -1 Y_tilde_Biological_E,3_ + 1 N_Biological_E,(3,_6)_ <= 0
c428_2: -1.1797901841687502e8 W_Biological_E,(3,_6)_ + 1 N_Biological_E,(3,_6)_ <= 0
c429_2: -1 Y_tilde_Biological_E,3_ + 1 N_Biological_E,(3,_7)_ <= 0
c430_2: -1.474737730210938e8 W_Biological_E,(3,_7)_ + 1 N_Biological_E,(3,_7)_ <= 0
c431_2: -1 Y_tilde_Biological_E,4_ + 1 N_Biological_E,(4,_4)_ <= 0
c432_2: -2.9494754604218755e7 W_Biological_E,(4,_4)_ + 1 N_Biological_E,(4,_4)_ <= 0
c433_2: -1 Y_tilde_Biological_E,4_ + 1 N_Biological_E,(4,_5)_ <= 0
c434_2: -5.898950920843751e7 W_Biological_E,(4,_5)_ + 1 N_Biological_E,(4,_5)_ <= 0
c435_2: -1 Y_tilde_Biological_E,4_ + 1 N_Biological_E,(4,_6)_ <= 0
c436_2: -8.848426381265627e7 W_Biological_E,(4,_6)_ + 1 N_Biological_E,(4,_6)_ <= 0
c437_2: -1 Y_tilde_Biological_E,4_ + 1 N_Biological_E,(4,_7)_ <= 0
c438_2: -1.1797901841687502e8 W_Biological_E,(4,_7)_ + 1 N_Biological_E,(4,_7)_ <= 0
c439_2: -1 Y_tilde_Biological_E,4_ + 1 N_Biological_E,(4,_8)_ <= 0
c440_2: -1.474737730210938e8 W_Biological_E,(4,_8)_ + 1 N_Biological_E,(4,_8)_ <= 0
c441_2: -1 Y_tilde_Biological_E,5_ + 1 N_Biological_E,(5,_5)_ <= 0
c442_2: -2.9494754604218755e7 W_Biological_E,(5,_5)_ + 1 N_Biological_E,(5,_5)_ <= 0
c443_2: -1 Y_tilde_Biological_E,5_ + 1 N_Biological_E,(5,_6)_ <= 0
c444_2: -5.898950920843751e7 W_Biological_E,(5,_6)_ + 1 N_Biological_E,(5,_6)_ <= 0
c445_2: -1 Y_tilde_Biological_E,5_ + 1 N_Biological_E,(5,_7)_ <= 0
c446_2: -8.848426381265627e7 W_Biological_E,(5,_7)_ + 1 N_Biological_E,(5,_7)_ <= 0
c447_2: -1 Y_tilde_Biological_E,5_ + 1 N_Biological_E,(5,_8)_ <= 0
c448_2: -1.1797901841687502e8 W_Biological_E,(5,_8)_ + 1 N_Biological_E,(5,_8)_ <= 0
c449_2: -1 Y_tilde_Biological_E,5_ + 1 N_Biological_E,(5,_9)_ <= 0
c450_2: -1.474737730210938e8 W_Biological_E,(5,_9)_ + 1 N_Biological_E,(5,_9)_ <= 0
c451_2: -1 Y_tilde_Biological_E,6_ + 1 N_Biological_E,(6,_6)_ <= 0
c452_2: -2.9494754604218755e7 W_Biological_E,(6,_6)_ + 1 N_Biological_E,(6,_6)_ <= 0
c453_2: -1 Y_tilde_Biological_E,6_ + 1 N_Biological_E,(6,_7)_ <= 0
c454_2: -5.898950920843751e7 W_Biological_E,(6,_7)_ + 1 N_Biological_E,(6,_7)_ <= 0
c455_2: -1 Y_tilde_Biological_E,6_ + 1 N_Biological_E,(6,_8)_ <= 0
c456_2: -8.848426381265627e7 W_Biological_E,(6,_8)_ + 1 N_Biological_E,(6,_8)_ <= 0
c457_2: -1 Y_tilde_Biological_E,6_ + 1 N_Biological_E,(6,_9)_ <= 0
c458_2: -1.1797901841687502e8 W_Biological_E,(6,_9)_ + 1 N_Biological_E,(6,_9)_ <= 0
c459_2: -1 Y_tilde_Biological_E,6_ + 1 N_Biological_E,(6,_10)_ <= 0
c460_2: -1.474737730210938e8 W_Biological_E,(6,_10)_ + 1 N_Biological_E,(6,_10)_ <= 0
c461_2: -1 Y_tilde_Biological_E,7_ + 1 N_Biological_E,(7,_7)_ <= 0
c462_2: -2.9494754604218755e7 W_Biological_E,(7,_7)_ + 1 N_Biological_E,(7,_7)_ <= 0
c463_2: -1 Y_tilde_Biological_E,7_ + 1 N_Biological_E,(7,_8)_ <= 0
c464_2: -5.898950920843751e7 W_Biological_E,(7,_8)_ + 1 N_Biological_E,(7,_8)_ <= 0
c465_2: -1 Y_tilde_Biological_E,7_ + 1 N_Biological_E,(7,_9)_ <= 0
c466_2: -8.848426381265627e7 W_Biological_E,(7,_9)_ + 1 N_Biological_E,(7,_9)_ <= 0
c467_2: -1 Y_tilde_Biological_E,7_ + 1 N_Biological_E,(7,_10)_ <= 0
c468_2: -1.1797901841687502e8 W_Biological_E,(7,_10)_ + 1 N_Biological_E,(7,_10)_ <= 0
c469_2: -1 Y_tilde_Biological_E,8_ + 1 N_Biological_E,(8,_8)_ <= 0
c470_2: -2.9494754604218755e7 W_Biological_E,(8,_8)_ + 1 N_Biological_E,(8,_8)_ <= 0
c471_2: -1 Y_tilde_Biological_E,8_ + 1 N_Biological_E,(8,_9)_ <= 0
c472_2: -5.898950920843751e7 W_Biological_E,(8,_9)_ + 1 N_Biological_E,(8,_9)_ <= 0
c473_2: -1 Y_tilde_Biological_E,8_ + 1 N_Biological_E,(8,_10)_ <= 0
c474_2: -8.848426381265627e7 W_Biological_E,(8,_10)_ + 1 N_Biological_E,(8,_10)_ <= 0
c475_2: -1 Y_tilde_Biological_E,9_ + 1 N_Biological_E,(9,_9)_ <= 0
c476_2: -2.9494754604218755e7 W_Biological_E,(9,_9)_ + 1 N_Biological_E,(9,_9)_ <= 0
c477_2: -1 Y_tilde_Biological_E,9_ + 1 N_Biological_E,(9,_10)_ <= 0
c478_2: -5.898950920843751e7 W_Biological_E,(9,_10)_ + 1 N_Biological_E,(9,_10)_ <= 0
c479_2: -1 Y_tilde_Biological_E,10_ + 1 N_Biological_E,(10,_10)_ <= 0
c480_2: -2.9494754604218755e7 W_Biological_E,(10,_10)_ + 1 N_Biological_E,(10,_10)_ <= 0
c481_2: -1 Y_tilde_GSK,1_ + 1 N_GSK,(1,_1)_ <= 0
c482_2: -3.675731394979876e8 W_GSK,(1,_1)_ + 1 N_GSK,(1,_1)_ <= 0
c483_2: -1 Y_tilde_GSK,1_ + 1 N_GSK,(1,_2)_ <= 0
c484_2: -7.351462789959753e8 W_GSK,(1,_2)_ + 1 N_GSK,(1,_2)_ <= 0
c485_2: -1 Y_tilde_GSK,1_ + 1 N_GSK,(1,_3)_ <= 0
c486_2: -1.1027194184939628e9 W_GSK,(1,_3)_ + 1 N_GSK,(1,_3)_ <= 0
c487_2: -1 Y_tilde_GSK,1_ + 1 N_GSK,(1,_4)_ <= 0
c488_2: -1.4702925579919498e9 W_GSK,(1,_4)_ + 1 N_GSK,(1,_4)_ <= 0
c489_2: -1 Y_tilde_GSK,1_ + 1 N_GSK,(1,_5)_ <= 0
c490_2: -1.8378656974899368e9 W_GSK,(1,_5)_ + 1 N_GSK,(1,_5)_ <= 0
c491_2: -1 Y_tilde_GSK,2_ + 1 N_GSK,(2,_2)_ <= 0
c492_2: -3.675731394979876e8 W_GSK,(2,_2)_ + 1 N_GSK,(2,_2)_ <= 0
c493_2: -1 Y_tilde_GSK,2_ + 1 N_GSK,(2,_3)_ <= 0
c494_2: -7.351462789959753e8 W_GSK,(2,_3)_ + 1 N_GSK,(2,_3)_ <= 0
c495_2: -1 Y_tilde_GSK,2_ + 1 N_GSK,(2,_4)_ <= 0
c496_2: -1.1027194184939628e9 W_GSK,(2,_4)_ + 1 N_GSK,(2,_4)_ <= 0
c497_2: -1 Y_tilde_GSK,2_ + 1 N_GSK,(2,_5)_ <= 0
c498_2: -1.4702925579919498e9 W_GSK,(2,_5)_ + 1 N_GSK,(2,_5)_ <= 0
c499_2: -1 Y_tilde_GSK,2_ + 1 N_GSK,(2,_6)_ <= 0
c500_2: -1.8378656974899368e9 W_GSK,(2,_6)_ + 1 N_GSK,(2,_6)_ <= 0
c501_2: -1 Y_tilde_GSK,3_ + 1 N_GSK,(3,_3)_ <= 0
c502_2: -3.675731394979876e8 W_GSK,(3,_3)_ + 1 N_GSK,(3,_3)_ <= 0
c503_2: -1 Y_tilde_GSK,3_ + 1 N_GSK,(3,_4)_ <= 0
c504_2: -7.351462789959753e8 W_GSK,(3,_4)_ + 1 N_GSK,(3,_4)_ <= 0
c505_2: -1 Y_tilde_GSK,3_ + 1 N_GSK,(3,_5)_ <= 0
c506_2: -1.1027194184939628e9 W_GSK,(3,_5)_ + 1 N_GSK,(3,_5)_ <= 0
c507_2: -1 Y_tilde_GSK,3_ + 1 N_GSK,(3,_6)_ <= 0
c508_2: -1.4702925579919498e9 W_GSK,(3,_6)_ + 1 N_GSK,(3,_6)_ <= 0
c509_2: -1 Y_tilde_GSK,3_ + 1 N_GSK,(3,_7)_ <= 0
c510_2: -1.8378656974899368e9 W_GSK,(3,_7)_ + 1 N_GSK,(3,_7)_ <= 0
c511_2: -1 Y_tilde_GSK,4_ + 1 N_GSK,(4,_4)_ <= 0
c512_2: -3.675731394979876e8 W_GSK,(4,_4)_ + 1 N_GSK,(4,_4)_ <= 0
c513_2: -1 Y_tilde_GSK,4_ + 1 N_GSK,(4,_5)_ <= 0
c514_2: -7.351462789959753e8 W_GSK,(4,_5)_ + 1 N_GSK,(4,_5)_ <= 0
c515_2: -1 Y_tilde_GSK,4_ + 1 N_GSK,(4,_6)_ <= 0
c516_2: -1.1027194184939628e9 W_GSK,(4,_6)_ + 1 N_GSK,(4,_6)_ <= 0
c517_2: -1 Y_tilde_GSK,4_ + 1 N_GSK,(4,_7)_ <= 0
c518_2: -1.4702925579919498e9 W_GSK,(4,_7)_ + 1 N_GSK,(4,_7)_ <= 0
c519_2: -1 Y_tilde_GSK,4_ + 1 N_GSK,(4,_8)_ <= 0
c520_2: -1.8378656974899368e9 W_GSK,(4,_8)_ + 1 N_GSK,(4,_8)_ <= 0
c521_2: -1 Y_tilde_GSK,5_ + 1 N_GSK,(5,_5)_ <= 0
c522_2: -3.675731394979876e8 W_GSK,(5,_5)_ + 1 N_GSK,(5,_5)_ <= 0
c523_2: -1 Y_tilde_GSK,5_ + 1 N_GSK,(5,_6)_ <= 0
c524_2: -7.351462789959753e8 W_GSK,(5,_6)_ + 1 N_GSK,(5,_6)_ <= 0
c525_2: -1 Y_tilde_GSK,5_ + 1 N_GSK,(5,_7)_ <= 0
c526_2: -1.1027194184939628e9 W_GSK,(5,_7)_ + 1 N_GSK,(5,_7)_ <= 0
c527_2: -1 Y_tilde_GSK,5_ + 1 N_GSK,(5,_8)_ <= 0
c528_2: -1.4702925579919498e9 W_GSK,(5,_8)_ + 1 N_GSK,(5,_8)_ <= 0
c529_2: -1 Y_tilde_GSK,5_ + 1 N_GSK,(5,_9)_ <= 0
c530_2: -1.8378656974899368e9 W_GSK,(5,_9)_ + 1 N_GSK,(5,_9)_ <= 0
c531_2: -1 Y_tilde_GSK,6_ + 1 N_GSK,(6,_6)_ <= 0
c532_2: -3.675731394979876e8 W_GSK,(6,_6)_ + 1 N_GSK,(6,_6)_ <= 0
c533_2: -1 Y_tilde_GSK,6_ + 1 N_GSK,(6,_7)_ <= 0
c534_2: -7.351462789959753e8 W_GSK,(6,_7)_ + 1 N_GSK,(6,_7)_ <= 0
c535_2: -1 Y_tilde_GSK,6_ + 1 N_GSK,(6,_8)_ <= 0
c536_2: -1.1027194184939628e9 W_GSK,(6,_8)_ + 1 N_GSK,(6,_8)_ <= 0
c537_2: -1 Y_tilde_GSK,6_ + 1 N_GSK,(6,_9)_ <= 0
c538_2: -1.4702925579919498e9 W_GSK,(6,_9)_ + 1 N_GSK,(6,_9)_ <= 0
c539_2: -1 Y_tilde_GSK,6_ + 1 N_GSK,(6,_10)_ <= 0
c540_2: -1.8378656974899368e9 W_GSK,(6,_10)_ + 1 N_GSK,(6,_10)_ <= 0
c541_2: -1 Y_tilde_GSK,7_ + 1 N_GSK,(7,_7)_ <= 0
c542_2: -3.675731394979876e8 W_GSK,(7,_7)_ + 1 N_GSK,(7,_7)_ <= 0
c543_2: -1 Y_tilde_GSK,7_ + 1 N_GSK,(7,_8)_ <= 0
c544_2: -7.351462789959753e8 W_GSK,(7,_8)_ + 1 N_GSK,(7,_8)_ <= 0
c545_2: -1 Y_tilde_GSK,7_ + 1 N_GSK,(7,_9)_ <= 0
c546_2: -1.1027194184939628e9 W_GSK,(7,_9)_ + 1 N_GSK,(7,_9)_ <= 0
c547_2: -1 Y_tilde_GSK,7_ + 1 N_GSK,(7,_10)_ <= 0
c548_2: -1.4702925579919498e9 W_GSK,(7,_10)_ + 1 N_GSK,(7,_10)_ <= 0
c549_2: -1 Y_tilde_GSK,8_ + 1 N_GSK,(8,_8)_ <= 0
c550_2: -3.675731394979876e8 W_GSK,(8,_8)_ + 1 N_GSK,(8,_8)_ <= 0
c551_2: -1 Y_tilde_GSK,8_ + 1 N_GSK,(8,_9)_ <= 0
c552_2: -7.351462789959753e8 W_GSK,(8,_9)_ + 1 N_GSK,(8,_9)_ <= 0
c553_2: -1 Y_tilde_GSK,8_ + 1 N_GSK,(8,_10)_ <= 0
c554_2: -1.1027194184939628e9 W_GSK,(8,_10)_ + 1 N_GSK,(8,_10)_ <= 0
c555_2: -1 Y_tilde_GSK,9_ + 1 N_GSK,(9,_9)_ <= 0
c556_2: -3.675731394979876e8 W_GSK,(9,_9)_ + 1 N_GSK,(9,_9)_ <= 0
c557_2: -1 Y_tilde_GSK,9_ + 1 N_GSK,(9,_10)_ <= 0
c558_2: -7.351462789959753e8 W_GSK,(9,_10)_ + 1 N_GSK,(9,_10)_ <= 0
c559_2: -1 Y_tilde_GSK,10_ + 1 N_GSK,(10,_10)_ <= 0
c560_2: -3.675731394979876e8 W_GSK,(10,_10)_ + 1 N_GSK,(10,_10)_ <= 0
c561_2: -1 Y_tilde_Haffkine_Bio,1_ + 1 N_Haffkine_Bio,(1,_1)_ <= 0
c562_2: -4.319700000000001e6 W_Haffkine_Bio,(1,_1)_ + 1 N_Haffkine_Bio,(1,_1)_ <= 0
c563_2: -1 Y_tilde_Haffkine_Bio,1_ + 1 N_Haffkine_Bio,(1,_2)_ <= 0
c564_2: -8.639400000000002e6 W_Haffkine_Bio,(1,_2)_ + 1 N_Haffkine_Bio,(1,_2)_ <= 0
c565_2: -1 Y_tilde_Haffkine_Bio,1_ + 1 N_Haffkine_Bio,(1,_3)_ <= 0
c566_2: -1.2959100000000002e7 W_Haffkine_Bio,(1,_3)_ + 1 N_Haffkine_Bio,(1,_3)_ <= 0
c567_2: -1 Y_tilde_Haffkine_Bio,1_ + 1 N_Haffkine_Bio,(1,_4)_ <= 0
c568_2: -1.7278800000000004e7 W_Haffkine_Bio,(1,_4)_ + 1 N_Haffkine_Bio,(1,_4)_ <= 0
c569_2: -1 Y_tilde_Haffkine_Bio,1_ + 1 N_Haffkine_Bio,(1,_5)_ <= 0
c570_2: -2.1598500000000004e7 W_Haffkine_Bio,(1,_5)_ + 1 N_Haffkine_Bio,(1,_5)_ <= 0
c571_2: -1 Y_tilde_Haffkine_Bio,2_ + 1 N_Haffkine_Bio,(2,_2)_ <= 0
c572_2: -4.319700000000001e6 W_Haffkine_Bio,(2,_2)_ + 1 N_Haffkine_Bio,(2,_2)_ <= 0
c573_2: -1 Y_tilde_Haffkine_Bio,2_ + 1 N_Haffkine_Bio,(2,_3)_ <= 0
c574_2: -8.639400000000002e6 W_Haffkine_Bio,(2,_3)_ + 1 N_Haffkine_Bio,(2,_3)_ <= 0
c575_2: -1 Y_tilde_Haffkine_Bio,2_ + 1 N_Haffkine_Bio,(2,_4)_ <= 0
c576_2: -1.2959100000000002e7 W_Haffkine_Bio,(2,_4)_ + 1 N_Haffkine_Bio,(2,_4)_ <= 0
c577_2: -1 Y_tilde_Haffkine_Bio,2_ + 1 N_Haffkine_Bio,(2,_5)_ <= 0
c578_2: -1.7278800000000004e7 W_Haffkine_Bio,(2,_5)_ + 1 N_Haffkine_Bio,(2,_5)_ <= 0
c579_2: -1 Y_tilde_Haffkine_Bio,2_ + 1 N_Haffkine_Bio,(2,_6)_ <= 0
c580_2: -2.1598500000000004e7 W_Haffkine_Bio,(2,_6)_ + 1 N_Haffkine_Bio,(2,_6)_ <= 0
c581_2: -1 Y_tilde_Haffkine_Bio,3_ + 1 N_Haffkine_Bio,(3,_3)_ <= 0
c582_2: -4.319700000000001e6 W_Haffkine_Bio,(3,_3)_ + 1 N_Haffkine_Bio,(3,_3)_ <= 0
c583_2: -1 Y_tilde_Haffkine_Bio,3_ + 1 N_Haffkine_Bio,(3,_4)_ <= 0
c584_2: -8.639400000000002e6 W_Haffkine_Bio,(3,_4)_ + 1 N_Haffkine_Bio,(3,_4)_ <= 0
c585_2: -1 Y_tilde_Haffkine_Bio,3_ + 1 N_Haffkine_Bio,(3,_5)_ <= 0
c586_2: -1.2959100000000002e7 W_Haffkine_Bio,(3,_5)_ + 1 N_Haffkine_Bio,(3,_5)_ <= 0
c587_2: -1 Y_tilde_Haffkine_Bio,3_ + 1 N_Haffkine_Bio,(3,_6)_ <= 0
c588_2: -1.7278800000000004e7 W_Haffkine_Bio,(3,_6)_ + 1 N_Haffkine_Bio,(3,_6)_ <= 0
c589_2: -1 Y_tilde_Haffkine_Bio,3_ + 1 N_Haffkine_Bio,(3,_7)_ <= 0
c590_2: -2.1598500000000004e7 W_Haffkine_Bio,(3,_7)_ + 1 N_Haffkine_Bio,(3,_7)_ <= 0
c591_2: -1 Y_tilde_Haffkine_Bio,4_ + 1 N_Haffkine_Bio,(4,_4)_ <= 0
c592_2: -4.319700000000001e6 W_Haffkine_Bio,(4,_4)_ + 1 N_Haffkine_Bio,(4,_4)_ <= 0
c593_2: -1 Y_tilde_Haffkine_Bio,4_ + 1 N_Haffkine_Bio,(4,_5)_ <= 0
c594_2: -8.639400000000002e6 W_Haffkine_Bio,(4,_5)_ + 1 N_Haffkine_Bio,(4,_5)_ <= 0
c595_2: -1 Y_tilde_Haffkine_Bio,4_ + 1 N_Haffkine_Bio,(4,_6)_ <= 0
c596_2: -1.2959100000000002e7 W_Haffkine_Bio,(4,_6)_ + 1 N_Haffkine_Bio,(4,_6)_ <= 0
c597_2: -1 Y_tilde_Haffkine_Bio,4_ + 1 N_Haffkine_Bio,(4,_7)_ <= 0
c598_2: -1.7278800000000004e7 W_Haffkine_Bio,(4,_7)_ + 1 N_Haffkine_Bio,(4,_7)_ <= 0
c599_2: -1 Y_tilde_Haffkine_Bio,4_ + 1 N_Haffkine_Bio,(4,_8)_ <= 0
c600_2: -2.1598500000000004e7 W_Haffkine_Bio,(4,_8)_ + 1 N_Haffkine_Bio,(4,_8)_ <= 0
c601_1: -1 Y_tilde_Haffkine_Bio,5_ + 1 N_Haffkine_Bio,(5,_5)_ <= 0
c602_1: -4.319700000000001e6 W_Haffkine_Bio,(5,_5)_ + 1 N_Haffkine_Bio,(5,_5)_ <= 0
c603_1: -1 Y_tilde_Haffkine_Bio,5_ + 1 N_Haffkine_Bio,(5,_6)_ <= 0
c604_1: -8.639400000000002e6 W_Haffkine_Bio,(5,_6)_ + 1 N_Haffkine_Bio,(5,_6)_ <= 0
c605_1: -1 Y_tilde_Haffkine_Bio,5_ + 1 N_Haffkine_Bio,(5,_7)_ <= 0
c606_1: -1.2959100000000002e7 W_Haffkine_Bio,(5,_7)_ + 1 N_Haffkine_Bio,(5,_7)_ <= 0
c607_1: -1 Y_tilde_Haffkine_Bio,5_ + 1 N_Haffkine_Bio,(5,_8)_ <= 0
c608_1: -1.7278800000000004e7 W_Haffkine_Bio,(5,_8)_ + 1 N_Haffkine_Bio,(5,_8)_ <= 0
c609_1: -1 Y_tilde_Haffkine_Bio,5_ + 1 N_Haffkine_Bio,(5,_9)_ <= 0
c610_1: -2.1598500000000004e7 W_Haffkine_Bio,(5,_9)_ + 1 N_Haffkine_Bio,(5,_9)_ <= 0
c611_1: -1 Y_tilde_Haffkine_Bio,6_ + 1 N_Haffkine_Bio,(6,_6)_ <= 0
c612_1: -4.319700000000001e6 W_Haffkine_Bio,(6,_6)_ + 1 N_Haffkine_Bio,(6,_6)_ <= 0
c613_1: -1 Y_tilde_Haffkine_Bio,6_ + 1 N_Haffkine_Bio,(6,_7)_ <= 0
c614_1: -8.639400000000002e6 W_Haffkine_Bio,(6,_7)_ + 1 N_Haffkine_Bio,(6,_7)_ <= 0
c615_1: -1 Y_tilde_Haffkine_Bio,6_ + 1 N_Haffkine_Bio,(6,_8)_ <= 0
c616_1: -1.2959100000000002e7 W_Haffkine_Bio,(6,_8)_ + 1 N_Haffkine_Bio,(6,_8)_ <= 0
c617_1: -1 Y_tilde_Haffkine_Bio,6_ + 1 N_Haffkine_Bio,(6,_9)_ <= 0
c618_1: -1.7278800000000004e7 W_Haffkine_Bio,(6,_9)_ + 1 N_Haffkine_Bio,(6,_9)_ <= 0
c619_1: -1 Y_tilde_Haffkine_Bio,6_ + 1 N_Haffkine_Bio,(6,_10)_ <= 0
c620_1: -2.1598500000000004e7 W_Haffkine_Bio,(6,_10)_ + 1 N_Haffkine_Bio,(6,_10)_ <= 0
c621_1: -1 Y_tilde_Haffkine_Bio,7_ + 1 N_Haffkine_Bio,(7,_7)_ <= 0
c622_1: -4.319700000000001e6 W_Haffkine_Bio,(7,_7)_ + 1 N_Haffkine_Bio,(7,_7)_ <= 0
c623_1: -1 Y_tilde_Haffkine_Bio,7_ + 1 N_Haffkine_Bio,(7,_8)_ <= 0
c624_1: -8.639400000000002e6 W_Haffkine_Bio,(7,_8)_ + 1 N_Haffkine_Bio,(7,_8)_ <= 0
c625_1: -1 Y_tilde_Haffkine_Bio,7_ + 1 N_Haffkine_Bio,(7,_9)_ <= 0
c626_1: -1.2959100000000002e7 W_Haffkine_Bio,(7,_9)_ + 1 N_Haffkine_Bio,(7,_9)_ <= 0
c627_1: -1 Y_tilde_Haffkine_Bio,7_ + 1 N_Haffkine_Bio,(7,_10)_ <= 0
c628_1: -1.7278800000000004e7 W_Haffkine_Bio,(7,_10)_ + 1 N_Haffkine_Bio,(7,_10)_ <= 0
c629_1: -1 Y_tilde_Haffkine_Bio,8_ + 1 N_Haffkine_Bio,(8,_8)_ <= 0
c630_1: -4.319700000000001e6 W_Haffkine_Bio,(8,_8)_ + 1 N_Haffkine_Bio,(8,_8)_ <= 0
c631_1: -1 Y_tilde_Haffkine_Bio,8_ + 1 N_Haffkine_Bio,(8,_9)_ <= 0
c632_1: -8.639400000000002e6 W_Haffkine_Bio,(8,_9)_ + 1 N_Haffkine_Bio,(8,_9)_ <= 0
c633_1: -1 Y_tilde_Haffkine_Bio,8_ + 1 N_Haffkine_Bio,(8,_10)_ <= 0
c634_1: -1.2959100000000002e7 W_Haffkine_Bio,(8,_10)_ + 1 N_Haffkine_Bio,(8,_10)_ <= 0
c635_1: -1 Y_tilde_Haffkine_Bio,9_ + 1 N_Haffkine_Bio,(9,_9)_ <= 0
c636_1: -4.319700000000001e6 W_Haffkine_Bio,(9,_9)_ + 1 N_Haffkine_Bio,(9,_9)_ <= 0
c637_1: -1 Y_tilde_Haffkine_Bio,9_ + 1 N_Haffkine_Bio,(9,_10)_ <= 0
c638_1: -8.639400000000002e6 W_Haffkine_Bio,(9,_10)_ + 1 N_Haffkine_Bio,(9,_10)_ <= 0
c639_1: -1 Y_tilde_Haffkine_Bio,10_ + 1 N_Haffkine_Bio,(10,_10)_ <= 0
c640_1: -4.319700000000001e6 W_Haffkine_Bio,(10,_10)_ + 1 N_Haffkine_Bio,(10,_10)_ <= 0
c641_1: -1 Y_tilde_LG_Chem,1_ + 1 N_LG_Chem,(1,_1)_ <= 0
c642_1: -2.598352266927085e7 W_LG_Chem,(1,_1)_ + 1 N_LG_Chem,(1,_1)_ <= 0
c643_1: -1 Y_tilde_LG_Chem,1_ + 1 N_LG_Chem,(1,_2)_ <= 0
c644_1: -5.19670453385417e7 W_LG_Chem,(1,_2)_ + 1 N_LG_Chem,(1,_2)_ <= 0
c645_1: -1 Y_tilde_LG_Chem,1_ + 1 N_LG_Chem,(1,_3)_ <= 0
c646_1: -7.795056800781254e7 W_LG_Chem,(1,_3)_ + 1 N_LG_Chem,(1,_3)_ <= 0
c647_1: -1 Y_tilde_LG_Chem,1_ + 1 N_LG_Chem,(1,_4)_ <= 0
c648_1: -1.0393409067708337e8 W_LG_Chem,(1,_4)_ + 1 N_LG_Chem,(1,_4)_ <= 0
c649_1: -1 Y_tilde_LG_Chem,1_ + 1 N_LG_Chem,(1,_5)_ <= 0
c650_1: -1.299176133463542e8 W_LG_Chem,(1,_5)_ + 1 N_LG_Chem,(1,_5)_ <= 0
c651_1: -1 Y_tilde_LG_Chem,2_ + 1 N_LG_Chem,(2,_2)_ <= 0
c652_1: -2.598352266927085e7 W_LG_Chem,(2,_2)_ + 1 N_LG_Chem,(2,_2)_ <= 0
c653_1: -1 Y_tilde_LG_Chem,2_ + 1 N_LG_Chem,(2,_3)_ <= 0
c654_1: -5.19670453385417e7 W_LG_Chem,(2,_3)_ + 1 N_LG_Chem,(2,_3)_ <= 0
c655_1: -1 Y_tilde_LG_Chem,2_ + 1 N_LG_Chem,(2,_4)_ <= 0
c656_1: -7.795056800781254e7 W_LG_Chem,(2,_4)_ + 1 N_LG_Chem,(2,_4)_ <= 0
c657_1: -1 Y_tilde_LG_Chem,2_ + 1 N_LG_Chem,(2,_5)_ <= 0
c658_1: -1.0393409067708337e8 W_LG_Chem,(2,_5)_ + 1 N_LG_Chem,(2,_5)_ <= 0
c659_1: -1 Y_tilde_LG_Chem,2_ + 1 N_LG_Chem,(2,_6)_ <= 0
c660_1: -1.299176133463542e8 W_LG_Chem,(2,_6)_ + 1 N_LG_Chem,(2,_6)_ <= 0
c661_1: -1 Y_tilde_LG_Chem,3_ + 1 N_LG_Chem,(3,_3)_ <= 0
c662_1: -2.598352266927085e7 W_LG_Chem,(3,_3)_ + 1 N_LG_Chem,(3,_3)_ <= 0
c663_1: -1 Y_tilde_LG_Chem,3_ + 1 N_LG_Chem,(3,_4)_ <= 0
c664_1: -5.19670453385417e7 W_LG_Chem,(3,_4)_ + 1 N_LG_Chem,(3,_4)_ <= 0
c665_1: -1 Y_tilde_LG_Chem,3_ + 1 N_LG_Chem,(3,_5)_ <= 0
c666_1: -7.795056800781254e7 W_LG_Chem,(3,_5)_ + 1 N_LG_Chem,(3,_5)_ <= 0
c667_1: -1 Y_tilde_LG_Chem,3_ + 1 N_LG_Chem,(3,_6)_ <= 0
c668_1: -1.0393409067708337e8 W_LG_Chem,(3,_6)_ + 1 N_LG_Chem,(3,_6)_ <= 0
c669_1: -1 Y_tilde_LG_Chem,3_ + 1 N_LG_Chem,(3,_7)_ <= 0
c670_1: -1.299176133463542e8 W_LG_Chem,(3,_7)_ + 1 N_LG_Chem,(3,_7)_ <= 0
c671_1: -1 Y_tilde_LG_Chem,4_ + 1 N_LG_Chem,(4,_4)_ <= 0
c672_1: -2.598352266927085e7 W_LG_Chem,(4,_4)_ + 1 N_LG_Chem,(4,_4)_ <= 0
c673_1: -1 Y_tilde_LG_Chem,4_ + 1 N_LG_Chem,(4,_5)_ <= 0
c674_1: -5.19670453385417e7 W_LG_Chem,(4,_5)_ + 1 N_LG_Chem,(4,_5)_ <= 0
c675_1: -1 Y_tilde_LG_Chem,4_ + 1 N_LG_Chem,(4,_6)_ <= 0
c676_1: -7.795056800781254e7 W_LG_Chem,(4,_6)_ + 1 N_LG_Chem,(4,_6)_ <= 0
c677_1: -1 Y_tilde_LG_Chem,4_ + 1 N_LG_Chem,(4,_7)_ <= 0
c678_1: -1.0393409067708337e8 W_LG_Chem,(4,_7)_ + 1 N_LG_Chem,(4,_7)_ <= 0
c679_1: -1 Y_tilde_LG_Chem,4_ + 1 N_LG_Chem,(4,_8)_ <= 0
c680_1: -1.299176133463542e8 W_LG_Chem,(4,_8)_ + 1 N_LG_Chem,(4,_8)_ <= 0
c681_1: -1 Y_tilde_LG_Chem,5_ + 1 N_LG_Chem,(5,_5)_ <= 0
c682_1: -2.598352266927085e7 W_LG_Chem,(5,_5)_ + 1 N_LG_Chem,(5,_5)_ <= 0
c683_1: -1 Y_tilde_LG_Chem,5_ + 1 N_LG_Chem,(5,_6)_ <= 0
c684_1: -5.19670453385417e7 W_LG_Chem,(5,_6)_ + 1 N_LG_Chem,(5,_6)_ <= 0
c685_1: -1 Y_tilde_LG_Chem,5_ + 1 N_LG_Chem,(5,_7)_ <= 0
c686_1: -7.795056800781254e7 W_LG_Chem,(5,_7)_ + 1 N_LG_Chem,(5,_7)_ <= 0
c687_1: -1 Y_tilde_LG_Chem,5_ + 1 N_LG_Chem,(5,_8)_ <= 0
c688_1: -1.0393409067708337e8 W_LG_Chem,(5,_8)_ + 1 N_LG_Chem,(5,_8)_ <= 0
c689_1: -1 Y_tilde_LG_Chem,5_ + 1 N_LG_Chem,(5,_9)_ <= 0
c690_1: -1.299176133463542e8 W_LG_Chem,(5,_9)_ + 1 N_LG_Chem,(5,_9)_ <= 0
c691_1: -1 Y_tilde_LG_Chem,6_ + 1 N_LG_Chem,(6,_6)_ <= 0
c692_1: -2.598352266927085e7 W_LG_Chem,(6,_6)_ + 1 N_LG_Chem,(6,_6)_ <= 0
c693_1: -1 Y_tilde_LG_Chem,6_ + 1 N_LG_Chem,(6,_7)_ <= 0
c694_1: -5.19670453385417e7 W_LG_Chem,(6,_7)_ + 1 N_LG_Chem,(6,_7)_ <= 0
c695_1: -1 Y_tilde_LG_Chem,6_ + 1 N_LG_Chem,(6,_8)_ <= 0
c696_1: -7.795056800781254e7 W_LG_Chem,(6,_8)_ + 1 N_LG_Chem,(6,_8)_ <= 0
c697_1: -1 Y_tilde_LG_Chem,6_ + 1 N_LG_Chem,(6,_9)_ <= 0
c698_1: -1.0393409067708337e8 W_LG_Chem,(6,_9)_ + 1 N_LG_Chem,(6,_9)_ <= 0
c699_1: -1 Y_tilde_LG_Chem,6_ + 1 N_LG_Chem,(6,_10)_ <= 0
c700_1: -1.299176133463542e8 W_LG_Chem,(6,_10)_ + 1 N_LG_Chem,(6,_10)_ <= 0
c701_1: -1 Y_tilde_LG_Chem,7_ + 1 N_LG_Chem,(7,_7)_ <= 0
c702_1: -2.598352266927085e7 W_LG_Chem,(7,_7)_ + 1 N_LG_Chem,(7,_7)_ <= 0
c703_1: -1 Y_tilde_LG_Chem,7_ + 1 N_LG_Chem,(7,_8)_ <= 0
c704_1: -5.19670453385417e7 W_LG_Chem,(7,_8)_ + 1 N_LG_Chem,(7,_8)_ <= 0
c705_1: -1 Y_tilde_LG_Chem,7_ + 1 N_LG_Chem,(7,_9)_ <= 0
c706_1: -7.795056800781254e7 W_LG_Chem,(7,_9)_ + 1 N_LG_Chem,(7,_9)_ <= 0
c707_1: -1 Y_tilde_LG_Chem,7_ + 1 N_LG_Chem,(7,_10)_ <= 0
c708_1: -1.0393409067708337e8 W_LG_Chem,(7,_10)_ + 1 N_LG_Chem,(7,_10)_ <= 0
c709_1: -1 Y_tilde_LG_Chem,8_ + 1 N_LG_Chem,(8,_8)_ <= 0
c710_1: -2.598352266927085e7 W_LG_Chem,(8,_8)_ + 1 N_LG_Chem,(8,_8)_ <= 0
c711_1: -1 Y_tilde_LG_Chem,8_ + 1 N_LG_Chem,(8,_9)_ <= 0
c712_1: -5.19670453385417e7 W_LG_Chem,(8,_9)_ + 1 N_LG_Chem,(8,_9)_ <= 0
c713_1: -1 Y_tilde_LG_Chem,8_ + 1 N_LG_Chem,(8,_10)_ <= 0
c714_1: -7.795056800781254e7 W_LG_Chem,(8,_10)_ + 1 N_LG_Chem,(8,_10)_ <= 0
c715_1: -1 Y_tilde_LG_Chem,9_ + 1 N_LG_Chem,(9,_9)_ <= 0
c716_1: -2.598352266927085e7 W_LG_Chem,(9,_9)_ + 1 N_LG_Chem,(9,_9)_ <= 0
c717_1: -1 Y_tilde_LG_Chem,9_ + 1 N_LG_Chem,(9,_10)_ <= 0
c718_1: -5.19670453385417e7 W_LG_Chem,(9,_10)_ + 1 N_LG_Chem,(9,_10)_ <= 0
c719_1: -1 Y_tilde_LG_Chem,10_ + 1 N_LG_Chem,(10,_10)_ <= 0
c720_1: -2.598352266927085e7 W_LG_Chem,(10,_10)_ + 1 N_LG_Chem,(10,_10)_ <= 0
c721_1: -1 Y_tilde_Merck_Sharp,1_ + 1 N_Merck_Sharp,(1,_1)_ <= 0
c722_1: -2.9279250000000004e7 W_Merck_Sharp,(1,_1)_ + 1 N_Merck_Sharp,(1,_1)_ <= 0
c723_1: -1 Y_tilde_Merck_Sharp,1_ + 1 N_Merck_Sharp,(1,_2)_ <= 0
c724_1: -5.855850000000001e7 W_Merck_Sharp,(1,_2)_ + 1 N_Merck_Sharp,(1,_2)_ <= 0
c725_1: -1 Y_tilde_Merck_Sharp,1_ + 1 N_Merck_Sharp,(1,_3)_ <= 0
c726_1: -8.783775000000001e7 W_Merck_Sharp,(1,_3)_ + 1 N_Merck_Sharp,(1,_3)_ <= 0
c727_1: -1 Y_tilde_Merck_Sharp,1_ + 1 N_Merck_Sharp,(1,_4)_ <= 0
c728_1: -1.1711700000000001e8 W_Merck_Sharp,(1,_4)_ + 1 N_Merck_Sharp,(1,_4)_ <= 0
c729_1: -1 Y_tilde_Merck_Sharp,1_ + 1 N_Merck_Sharp,(1,_5)_ <= 0
c730_1: -1.4639625000000003e8 W_Merck_Sharp,(1,_5)_ + 1 N_Merck_Sharp,(1,_5)_ <= 0
c731_1: -1 Y_tilde_Merck_Sharp,2_ + 1 N_Merck_Sharp,(2,_2)_ <= 0
c732_1: -2.9279250000000004e7 W_Merck_Sharp,(2,_2)_ + 1 N_Merck_Sharp,(2,_2)_ <= 0
c733_1: -1 Y_tilde_Merck_Sharp,2_ + 1 N_Merck_Sharp,(2,_3)_ <= 0
c734_1: -5.855850000000001e7 W_Merck_Sharp,(2,_3)_ + 1 N_Merck_Sharp,(2,_3)_ <= 0
c735_1: -1 Y_tilde_Merck_Sharp,2_ + 1 N_Merck_Sharp,(2,_4)_ <= 0
c736_1: -8.783775000000001e7 W_Merck_Sharp,(2,_4)_ + 1 N_Merck_Sharp,(2,_4)_ <= 0
c737_1: -1 Y_tilde_Merck_Sharp,2_ + 1 N_Merck_Sharp,(2,_5)_ <= 0
c738_1: -1.1711700000000001e8 W_Merck_Sharp,(2,_5)_ + 1 N_Merck_Sharp,(2,_5)_ <= 0
c739_1: -1 Y_tilde_Merck_Sharp,2_ + 1 N_Merck_Sharp,(2,_6)_ <= 0
c740_1: -1.4639625000000003e8 W_Merck_Sharp,(2,_6)_ + 1 N_Merck_Sharp,(2,_6)_ <= 0
c741_1: -1 Y_tilde_Merck_Sharp,3_ + 1 N_Merck_Sharp,(3,_3)_ <= 0
c742_1: -2.9279250000000004e7 W_Merck_Sharp,(3,_3)_ + 1 N_Merck_Sharp,(3,_3)_ <= 0
c743_1: -1 Y_tilde_Merck_Sharp,3_ + 1 N_Merck_Sharp,(3,_4)_ <= 0
c744_1: -5.855850000000001e7 W_Merck_Sharp,(3,_4)_ + 1 N_Merck_Sharp,(3,_4)_ <= 0
c745_1: -1 Y_tilde_Merck_Sharp,3_ + 1 N_Merck_Sharp,(3,_5)_ <= 0
c746_1: -8.783775000000001e7 W_Merck_Sharp,(3,_5)_ + 1 N_Merck_Sharp,(3,_5)_ <= 0
c747_1: -1 Y_tilde_Merck_Sharp,3_ + 1 N_Merck_Sharp,(3,_6)_ <= 0
c748_1: -1.1711700000000001e8 W_Merck_Sharp,(3,_6)_ + 1 N_Merck_Sharp,(3,_6)_ <= 0
c749_1: -1 Y_tilde_Merck_Sharp,3_ + 1 N_Merck_Sharp,(3,_7)_ <= 0
c750_1: -1.4639625000000003e8 W_Merck_Sharp,(3,_7)_ + 1 N_Merck_Sharp,(3,_7)_ <= 0
c751_1: -1 Y_tilde_Merck_Sharp,4_ + 1 N_Merck_Sharp,(4,_4)_ <= 0
c752_1: -2.9279250000000004e7 W_Merck_Sharp,(4,_4)_ + 1 N_Merck_Sharp,(4,_4)_ <= 0
c753_1: -1 Y_tilde_Merck_Sharp,4_ + 1 N_Merck_Sharp,(4,_5)_ <= 0
c754_1: -5.855850000000001e7 W_Merck_Sharp,(4,_5)_ + 1 N_Merck_Sharp,(4,_5)_ <= 0
c755_1: -1 Y_tilde_Merck_Sharp,4_ + 1 N_Merck_Sharp,(4,_6)_ <= 0
c756_1: -8.783775000000001e7 W_Merck_Sharp,(4,_6)_ + 1 N_Merck_Sharp,(4,_6)_ <= 0
c757_1: -1 Y_tilde_Merck_Sharp,4_ + 1 N_Merck_Sharp,(4,_7)_ <= 0
c758_1: -1.1711700000000001e8 W_Merck_Sharp,(4,_7)_ + 1 N_Merck_Sharp,(4,_7)_ <= 0
c759_1: -1 Y_tilde_Merck_Sharp,4_ + 1 N_Merck_Sharp,(4,_8)_ <= 0
c760_1: -1.4639625000000003e8 W_Merck_Sharp,(4,_8)_ + 1 N_Merck_Sharp,(4,_8)_ <= 0
c761_1: -1 Y_tilde_Merck_Sharp,5_ + 1 N_Merck_Sharp,(5,_5)_ <= 0
c762_1: -2.9279250000000004e7 W_Merck_Sharp,(5,_5)_ + 1 N_Merck_Sharp,(5,_5)_ <= 0
c763_1: -1 Y_tilde_Merck_Sharp,5_ + 1 N_Merck_Sharp,(5,_6)_ <= 0
c764_1: -5.855850000000001e7 W_Merck_Sharp,(5,_6)_ + 1 N_Merck_Sharp,(5,_6)_ <= 0
c765_1: -1 Y_tilde_Merck_Sharp,5_ + 1 N_Merck_Sharp,(5,_7)_ <= 0
c766_1: -8.783775000000001e7 W_Merck_Sharp,(5,_7)_ + 1 N_Merck_Sharp,(5,_7)_ <= 0
c767_1: -1 Y_tilde_Merck_Sharp,5_ + 1 N_Merck_Sharp,(5,_8)_ <= 0
c768_1: -1.1711700000000001e8 W_Merck_Sharp,(5,_8)_ + 1 N_Merck_Sharp,(5,_8)_ <= 0
c769_1: -1 Y_tilde_Merck_Sharp,5_ + 1 N_Merck_Sharp,(5,_9)_ <= 0
c770_1: -1.4639625000000003e8 W_Merck_Sharp,(5,_9)_ + 1 N_Merck_Sharp,(5,_9)_ <= 0
c771_1: -1 Y_tilde_Merck_Sharp,6_ + 1 N_Merck_Sharp,(6,_6)_ <= 0
c772_1: -2.9279250000000004e7 W_Merck_Sharp,(6,_6)_ + 1 N_Merck_Sharp,(6,_6)_ <= 0
c773_1: -1 Y_tilde_Merck_Sharp,6_ + 1 N_Merck_Sharp,(6,_7)_ <= 0
c774_1: -5.855850000000001e7 W_Merck_Sharp,(6,_7)_ + 1 N_Merck_Sharp,(6,_7)_ <= 0
c775_1: -1 Y_tilde_Merck_Sharp,6_ + 1 N_Merck_Sharp,(6,_8)_ <= 0
c776_1: -8.783775000000001e7 W_Merck_Sharp,(6,_8)_ + 1 N_Merck_Sharp,(6,_8)_ <= 0
c777_1: -1 Y_tilde_Merck_Sharp,6_ + 1 N_Merck_Sharp,(6,_9)_ <= 0
c778_1: -1.1711700000000001e8 W_Merck_Sharp,(6,_9)_ + 1 N_Merck_Sharp,(6,_9)_ <= 0
c779_1: -1 Y_tilde_Merck_Sharp,6_ + 1 N_Merck_Sharp,(6,_10)_ <= 0
c780_1: -1.4639625000000003e8 W_Merck_Sharp,(6,_10)_ + 1 N_Merck_Sharp,(6,_10)_ <= 0
c781_1: -1 Y_tilde_Merck_Sharp,7_ + 1 N_Merck_Sharp,(7,_7)_ <= 0
c782_1: -2.9279250000000004e7 W_Merck_Sharp,(7,_7)_ + 1 N_Merck_Sharp,(7,_7)_ <= 0
c783_1: -1 Y_tilde_Merck_Sharp,7_ + 1 N_Merck_Sharp,(7,_8)_ <= 0
c784_1: -5.855850000000001e7 W_Merck_Sharp,(7,_8)_ + 1 N_Merck_Sharp,(7,_8)_ <= 0
c785_1: -1 Y_tilde_Merck_Sharp,7_ + 1 N_Merck_Sharp,(7,_9)_ <= 0
c786_1: -8.783775000000001e7 W_Merck_Sharp,(7,_9)_ + 1 N_Merck_Sharp,(7,_9)_ <= 0
c787_1: -1 Y_tilde_Merck_Sharp,7_ + 1 N_Merck_Sharp,(7,_10)_ <= 0
c788_1: -1.1711700000000001e8 W_Merck_Sharp,(7,_10)_ + 1 N_Merck_Sharp,(7,_10)_ <= 0
c789_1: -1 Y_tilde_Merck_Sharp,8_ + 1 N_Merck_Sharp,(8,_8)_ <= 0
c790_1: -2.9279250000000004e7 W_Merck_Sharp,(8,_8)_ + 1 N_Merck_Sharp,(8,_8)_ <= 0
c791_1: -1 Y_tilde_Merck_Sharp,8_ + 1 N_Merck_Sharp,(8,_9)_ <= 0
c792_1: -5.855850000000001e7 W_Merck_Sharp,(8,_9)_ + 1 N_Merck_Sharp,(8,_9)_ <= 0
c793_1: -1 Y_tilde_Merck_Sharp,8_ + 1 N_Merck_Sharp,(8,_10)_ <= 0
c794_1: -8.783775000000001e7 W_Merck_Sharp,(8,_10)_ + 1 N_Merck_Sharp,(8,_10)_ <= 0
c795_1: -1 Y_tilde_Merck_Sharp,9_ + 1 N_Merck_Sharp,(9,_9)_ <= 0
c796_1: -2.9279250000000004e7 W_Merck_Sharp,(9,_9)_ + 1 N_Merck_Sharp,(9,_9)_ <= 0
c797_1: -1 Y_tilde_Merck_Sharp,9_ + 1 N_Merck_Sharp,(9,_10)_ <= 0
c798_1: -5.855850000000001e7 W_Merck_Sharp,(9,_10)_ + 1 N_Merck_Sharp,(9,_10)_ <= 0
c799_1: -1 Y_tilde_Merck_Sharp,10_ + 1 N_Merck_Sharp,(10,_10)_ <= 0
c800_1: -2.9279250000000004e7 W_Merck_Sharp,(10,_10)_ + 1 N_Merck_Sharp,(10,_10)_ <= 0
c801_1: -1 Y_tilde_Panacea_Biotec,1_ + 1 N_Panacea_Biotec,(1,_1)_ <= 0
c802_1: -2.0448986250000015e7 W_Panacea_Biotec,(1,_1)_ + 1 N_Panacea_Biotec,(1,_1)_ <= 0
c803_1: -1 Y_tilde_Panacea_Biotec,1_ + 1 N_Panacea_Biotec,(1,_2)_ <= 0
c804_1: -4.089797250000003e7 W_Panacea_Biotec,(1,_2)_ + 1 N_Panacea_Biotec,(1,_2)_ <= 0
c805_1: -1 Y_tilde_Panacea_Biotec,1_ + 1 N_Panacea_Biotec,(1,_3)_ <= 0
c806_1: -6.1346958750000045e7 W_Panacea_Biotec,(1,_3)_ + 1 N_Panacea_Biotec,(1,_3)_ <= 0
c807_1: -1 Y_tilde_Panacea_Biotec,1_ + 1 N_Panacea_Biotec,(1,_4)_ <= 0
c808_1: -8.179594500000004e7 W_Panacea_Biotec,(1,_4)_ + 1 N_Panacea_Biotec,(1,_4)_ <= 0
c809_1: -1 Y_tilde_Panacea_Biotec,1_ + 1 N_Panacea_Biotec,(1,_5)_ <= 0
c810_1: -1.0224493125000004e8 W_Panacea_Biotec,(1,_5)_ + 1 N_Panacea_Biotec,(1,_5)_ <= 0
c811_1: -1 Y_tilde_Panacea_Biotec,2_ + 1 N_Panacea_Biotec,(2,_2)_ <= 0
c812_1: -2.0448986250000015e7 W_Panacea_Biotec,(2,_2)_ + 1 N_Panacea_Biotec,(2,_2)_ <= 0
c813_1: -1 Y_tilde_Panacea_Biotec,2_ + 1 N_Panacea_Biotec,(2,_3)_ <= 0
c814_1: -4.089797250000003e7 W_Panacea_Biotec,(2,_3)_ + 1 N_Panacea_Biotec,(2,_3)_ <= 0
c815_1: -1 Y_tilde_Panacea_Biotec,2_ + 1 N_Panacea_Biotec,(2,_4)_ <= 0
c816_1: -6.1346958750000045e7 W_Panacea_Biotec,(2,_4)_ + 1 N_Panacea_Biotec,(2,_4)_ <= 0
c817_1: -1 Y_tilde_Panacea_Biotec,2_ + 1 N_Panacea_Biotec,(2,_5)_ <= 0
c818_1: -8.179594500000004e7 W_Panacea_Biotec,(2,_5)_ + 1 N_Panacea_Biotec,(2,_5)_ <= 0
c819_1: -1 Y_tilde_Panacea_Biotec,2_ + 1 N_Panacea_Biotec,(2,_6)_ <= 0
c820_1: -1.0224493125000004e8 W_Panacea_Biotec,(2,_6)_ + 1 N_Panacea_Biotec,(2,_6)_ <= 0
c821_1: -1 Y_tilde_Panacea_Biotec,3_ + 1 N_Panacea_Biotec,(3,_3)_ <= 0
c822_1: -2.0448986250000015e7 W_Panacea_Biotec,(3,_3)_ + 1 N_Panacea_Biotec,(3,_3)_ <= 0
c823_1: -1 Y_tilde_Panacea_Biotec,3_ + 1 N_Panacea_Biotec,(3,_4)_ <= 0
c824_1: -4.089797250000003e7 W_Panacea_Biotec,(3,_4)_ + 1 N_Panacea_Biotec,(3,_4)_ <= 0
c825_1: -1 Y_tilde_Panacea_Biotec,3_ + 1 N_Panacea_Biotec,(3,_5)_ <= 0
c826_1: -6.1346958750000045e7 W_Panacea_Biotec,(3,_5)_ + 1 N_Panacea_Biotec,(3,_5)_ <= 0
c827_1: -1 Y_tilde_Panacea_Biotec,3_ + 1 N_Panacea_Biotec,(3,_6)_ <= 0
c828_1: -8.179594500000004e7 W_Panacea_Biotec,(3,_6)_ + 1 N_Panacea_Biotec,(3,_6)_ <= 0
c829_1: -1 Y_tilde_Panacea_Biotec,3_ + 1 N_Panacea_Biotec,(3,_7)_ <= 0
c830_1: -1.0224493125000004e8 W_Panacea_Biotec,(3,_7)_ + 1 N_Panacea_Biotec,(3,_7)_ <= 0
c831_1: -1 Y_tilde_Panacea_Biotec,4_ + 1 N_Panacea_Biotec,(4,_4)_ <= 0
c832_1: -2.0448986250000015e7 W_Panacea_Biotec,(4,_4)_ + 1 N_Panacea_Biotec,(4,_4)_ <= 0
c833_1: -1 Y_tilde_Panacea_Biotec,4_ + 1 N_Panacea_Biotec,(4,_5)_ <= 0
c834_1: -4.089797250000003e7 W_Panacea_Biotec,(4,_5)_ + 1 N_Panacea_Biotec,(4,_5)_ <= 0
c835_1: -1 Y_tilde_Panacea_Biotec,4_ + 1 N_Panacea_Biotec,(4,_6)_ <= 0
c836_1: -6.1346958750000045e7 W_Panacea_Biotec,(4,_6)_ + 1 N_Panacea_Biotec,(4,_6)_ <= 0
c837_1: -1 Y_tilde_Panacea_Biotec,4_ + 1 N_Panacea_Biotec,(4,_7)_ <= 0
c838_1: -8.179594500000004e7 W_Panacea_Biotec,(4,_7)_ + 1 N_Panacea_Biotec,(4,_7)_ <= 0
c839_1: -1 Y_tilde_Panacea_Biotec,4_ + 1 N_Panacea_Biotec,(4,_8)_ <= 0
c840_1: -1.0224493125000004e8 W_Panacea_Biotec,(4,_8)_ + 1 N_Panacea_Biotec,(4,_8)_ <= 0
c841_1: -1 Y_tilde_Panacea_Biotec,5_ + 1 N_Panacea_Biotec,(5,_5)_ <= 0
c842_1: -2.0448986250000015e7 W_Panacea_Biotec,(5,_5)_ + 1 N_Panacea_Biotec,(5,_5)_ <= 0
c843_1: -1 Y_tilde_Panacea_Biotec,5_ + 1 N_Panacea_Biotec,(5,_6)_ <= 0
c844_1: -4.089797250000003e7 W_Panacea_Biotec,(5,_6)_ + 1 N_Panacea_Biotec,(5,_6)_ <= 0
c845_1: -1 Y_tilde_Panacea_Biotec,5_ + 1 N_Panacea_Biotec,(5,_7)_ <= 0
c846_1: -6.1346958750000045e7 W_Panacea_Biotec,(5,_7)_ + 1 N_Panacea_Biotec,(5,_7)_ <= 0
c847_1: -1 Y_tilde_Panacea_Biotec,5_ + 1 N_Panacea_Biotec,(5,_8)_ <= 0
c848_1: -8.179594500000004e7 W_Panacea_Biotec,(5,_8)_ + 1 N_Panacea_Biotec,(5,_8)_ <= 0
c849_1: -1 Y_tilde_Panacea_Biotec,5_ + 1 N_Panacea_Biotec,(5,_9)_ <= 0
c850_1: -1.0224493125000004e8 W_Panacea_Biotec,(5,_9)_ + 1 N_Panacea_Biotec,(5,_9)_ <= 0
c851_1: -1 Y_tilde_Panacea_Biotec,6_ + 1 N_Panacea_Biotec,(6,_6)_ <= 0
c852_1: -2.0448986250000015e7 W_Panacea_Biotec,(6,_6)_ + 1 N_Panacea_Biotec,(6,_6)_ <= 0
c853_1: -1 Y_tilde_Panacea_Biotec,6_ + 1 N_Panacea_Biotec,(6,_7)_ <= 0
c854_1: -4.089797250000003e7 W_Panacea_Biotec,(6,_7)_ + 1 N_Panacea_Biotec,(6,_7)_ <= 0
c855_1: -1 Y_tilde_Panacea_Biotec,6_ + 1 N_Panacea_Biotec,(6,_8)_ <= 0
c856_1: -6.1346958750000045e7 W_Panacea_Biotec,(6,_8)_ + 1 N_Panacea_Biotec,(6,_8)_ <= 0
c857_1: -1 Y_tilde_Panacea_Biotec,6_ + 1 N_Panacea_Biotec,(6,_9)_ <= 0
c858_1: -8.179594500000004e7 W_Panacea_Biotec,(6,_9)_ + 1 N_Panacea_Biotec,(6,_9)_ <= 0
c859_1: -1 Y_tilde_Panacea_Biotec,6_ + 1 N_Panacea_Biotec,(6,_10)_ <= 0
c860_1: -1.0224493125000004e8 W_Panacea_Biotec,(6,_10)_ + 1 N_Panacea_Biotec,(6,_10)_ <= 0
c861_1: -1 Y_tilde_Panacea_Biotec,7_ + 1 N_Panacea_Biotec,(7,_7)_ <= 0
c862_1: -2.0448986250000015e7 W_Panacea_Biotec,(7,_7)_ + 1 N_Panacea_Biotec,(7,_7)_ <= 0
c863_1: -1 Y_tilde_Panacea_Biotec,7_ + 1 N_Panacea_Biotec,(7,_8)_ <= 0
c864_1: -4.089797250000003e7 W_Panacea_Biotec,(7,_8)_ + 1 N_Panacea_Biotec,(7,_8)_ <= 0
c865_1: -1 Y_tilde_Panacea_Biotec,7_ + 1 N_Panacea_Biotec,(7,_9)_ <= 0
c866_1: -6.1346958750000045e7 W_Panacea_Biotec,(7,_9)_ + 1 N_Panacea_Biotec,(7,_9)_ <= 0
c867_1: -1 Y_tilde_Panacea_Biotec,7_ + 1 N_Panacea_Biotec,(7,_10)_ <= 0
c868_1: -8.179594500000004e7 W_Panacea_Biotec,(7,_10)_ + 1 N_Panacea_Biotec,(7,_10)_ <= 0
c869_1: -1 Y_tilde_Panacea_Biotec,8_ + 1 N_Panacea_Biotec,(8,_8)_ <= 0
c870_1: -2.0448986250000015e7 W_Panacea_Biotec,(8,_8)_ + 1 N_Panacea_Biotec,(8,_8)_ <= 0
c871_1: -1 Y_tilde_Panacea_Biotec,8_ + 1 N_Panacea_Biotec,(8,_9)_ <= 0
c872_1: -4.089797250000003e7 W_Panacea_Biotec,(8,_9)_ + 1 N_Panacea_Biotec,(8,_9)_ <= 0
c873_1: -1 Y_tilde_Panacea_Biotec,8_ + 1 N_Panacea_Biotec,(8,_10)_ <= 0
c874_1: -6.1346958750000045e7 W_Panacea_Biotec,(8,_10)_ + 1 N_Panacea_Biotec,(8,_10)_ <= 0
c875_1: -1 Y_tilde_Panacea_Biotec,9_ + 1 N_Panacea_Biotec,(9,_9)_ <= 0
c876_1: -2.0448986250000015e7 W_Panacea_Biotec,(9,_9)_ + 1 N_Panacea_Biotec,(9,_9)_ <= 0
c877_1: -1 Y_tilde_Panacea_Biotec,9_ + 1 N_Panacea_Biotec,(9,_10)_ <= 0
c878_1: -4.089797250000003e7 W_Panacea_Biotec,(9,_10)_ + 1 N_Panacea_Biotec,(9,_10)_ <= 0
c879_1: -1 Y_tilde_Panacea_Biotec,10_ + 1 N_Panacea_Biotec,(10,_10)_ <= 0
c880_1: -2.0448986250000015e7 W_Panacea_Biotec,(10,_10)_ + 1 N_Panacea_Biotec,(10,_10)_ <= 0
c881_1: -1 Y_tilde_PT_Bio,1_ + 1 N_PT_Bio,(1,_1)_ <= 0
c882_1: -1.5975940699869809e6 W_PT_Bio,(1,_1)_ + 1 N_PT_Bio,(1,_1)_ <= 0
c883_1: -1 Y_tilde_PT_Bio,1_ + 1 N_PT_Bio,(1,_2)_ <= 0
c884_1: -3.195188139973961e6 W_PT_Bio,(1,_2)_ + 1 N_PT_Bio,(1,_2)_ <= 0
c885_1: -1 Y_tilde_PT_Bio,1_ + 1 N_PT_Bio,(1,_3)_ <= 0
c886_1: -4.792782209960941e6 W_PT_Bio,(1,_3)_ + 1 N_PT_Bio,(1,_3)_ <= 0
c887_1: -1 Y_tilde_PT_Bio,1_ + 1 N_PT_Bio,(1,_4)_ <= 0
c888_1: -6.3903762799479235e6 W_PT_Bio,(1,_4)_ + 1 N_PT_Bio,(1,_4)_ <= 0
c889_1: -1 Y_tilde_PT_Bio,1_ + 1 N_PT_Bio,(1,_5)_ <= 0
c890_1: -7.987970349934906e6 W_PT_Bio,(1,_5)_ + 1 N_PT_Bio,(1,_5)_ <= 0
c891_1: -1 Y_tilde_PT_Bio,2_ + 1 N_PT_Bio,(2,_2)_ <= 0
c892_1: -1.5975940699869809e6 W_PT_Bio,(2,_2)_ + 1 N_PT_Bio,(2,_2)_ <= 0
c893_1: -1 Y_tilde_PT_Bio,2_ + 1 N_PT_Bio,(2,_3)_ <= 0
c894_1: -3.195188139973961e6 W_PT_Bio,(2,_3)_ + 1 N_PT_Bio,(2,_3)_ <= 0
c895_1: -1 Y_tilde_PT_Bio,2_ + 1 N_PT_Bio,(2,_4)_ <= 0
c896_1: -4.792782209960941e6 W_PT_Bio,(2,_4)_ + 1 N_PT_Bio,(2,_4)_ <= 0
c897_1: -1 Y_tilde_PT_Bio,2_ + 1 N_PT_Bio,(2,_5)_ <= 0
c898_1: -6.3903762799479235e6 W_PT_Bio,(2,_5)_ + 1 N_PT_Bio,(2,_5)_ <= 0
c899_1: -1 Y_tilde_PT_Bio,2_ + 1 N_PT_Bio,(2,_6)_ <= 0
c900_1: -7.987970349934906e6 W_PT_Bio,(2,_6)_ + 1 N_PT_Bio,(2,_6)_ <= 0
c901_1: -1 Y_tilde_PT_Bio,3_ + 1 N_PT_Bio,(3,_3)_ <= 0
c902_1: -1.5975940699869809e6 W_PT_Bio,(3,_3)_ + 1 N_PT_Bio,(3,_3)_ <= 0
c903_1: -1 Y_tilde_PT_Bio,3_ + 1 N_PT_Bio,(3,_4)_ <= 0
c904_1: -3.195188139973961e6 W_PT_Bio,(3,_4)_ + 1 N_PT_Bio,(3,_4)_ <= 0
c905_1: -1 Y_tilde_PT_Bio,3_ + 1 N_PT_Bio,(3,_5)_ <= 0
c906_1: -4.792782209960941e6 W_PT_Bio,(3,_5)_ + 1 N_PT_Bio,(3,_5)_ <= 0
c907_1: -1 Y_tilde_PT_Bio,3_ + 1 N_PT_Bio,(3,_6)_ <= 0
c908_1: -6.3903762799479235e6 W_PT_Bio,(3,_6)_ + 1 N_PT_Bio,(3,_6)_ <= 0
c909_1: -1 Y_tilde_PT_Bio,3_ + 1 N_PT_Bio,(3,_7)_ <= 0
c910_1: -7.987970349934906e6 W_PT_Bio,(3,_7)_ + 1 N_PT_Bio,(3,_7)_ <= 0
c911_1: -1 Y_tilde_PT_Bio,4_ + 1 N_PT_Bio,(4,_4)_ <= 0
c912_1: -1.5975940699869809e6 W_PT_Bio,(4,_4)_ + 1 N_PT_Bio,(4,_4)_ <= 0
c913_1: -1 Y_tilde_PT_Bio,4_ + 1 N_PT_Bio,(4,_5)_ <= 0
c914_1: -3.195188139973961e6 W_PT_Bio,(4,_5)_ + 1 N_PT_Bio,(4,_5)_ <= 0
c915_1: -1 Y_tilde_PT_Bio,4_ + 1 N_PT_Bio,(4,_6)_ <= 0
c916_1: -4.792782209960941e6 W_PT_Bio,(4,_6)_ + 1 N_PT_Bio,(4,_6)_ <= 0
c917_1: -1 Y_tilde_PT_Bio,4_ + 1 N_PT_Bio,(4,_7)_ <= 0
c918_1: -6.3903762799479235e6 W_PT_Bio,(4,_7)_ + 1 N_PT_Bio,(4,_7)_ <= 0
c919_1: -1 Y_tilde_PT_Bio,4_ + 1 N_PT_Bio,(4,_8)_ <= 0
c920_1: -7.987970349934906e6 W_PT_Bio,(4,_8)_ + 1 N_PT_Bio,(4,_8)_ <= 0
c921_1: -1 Y_tilde_PT_Bio,5_ + 1 N_PT_Bio,(5,_5)_ <= 0
c922_1: -1.5975940699869809e6 W_PT_Bio,(5,_5)_ + 1 N_PT_Bio,(5,_5)_ <= 0
c923_1: -1 Y_tilde_PT_Bio,5_ + 1 N_PT_Bio,(5,_6)_ <= 0
c924_1: -3.195188139973961e6 W_PT_Bio,(5,_6)_ + 1 N_PT_Bio,(5,_6)_ <= 0
c925_1: -1 Y_tilde_PT_Bio,5_ + 1 N_PT_Bio,(5,_7)_ <= 0
c926_1: -4.792782209960941e6 W_PT_Bio,(5,_7)_ + 1 N_PT_Bio,(5,_7)_ <= 0
c927_1: -1 Y_tilde_PT_Bio,5_ + 1 N_PT_Bio,(5,_8)_ <= 0
c928_1: -6.3903762799479235e6 W_PT_Bio,(5,_8)_ + 1 N_PT_Bio,(5,_8)_ <= 0
c929_1: -1 Y_tilde_PT_Bio,5_ + 1 N_PT_Bio,(5,_9)_ <= 0
c930_1: -7.987970349934906e6 W_PT_Bio,(5,_9)_ + 1 N_PT_Bio,(5,_9)_ <= 0
c931_1: -1 Y_tilde_PT_Bio,6_ + 1 N_PT_Bio,(6,_6)_ <= 0
c932_1: -1.5975940699869809e6 W_PT_Bio,(6,_6)_ + 1 N_PT_Bio,(6,_6)_ <= 0
c933_1: -1 Y_tilde_PT_Bio,6_ + 1 N_PT_Bio,(6,_7)_ <= 0
c934_1: -3.195188139973961e6 W_PT_Bio,(6,_7)_ + 1 N_PT_Bio,(6,_7)_ <= 0
c935_1: -1 Y_tilde_PT_Bio,6_ + 1 N_PT_Bio,(6,_8)_ <= 0
c936_1: -4.792782209960941e6 W_PT_Bio,(6,_8)_ + 1 N_PT_Bio,(6,_8)_ <= 0
c937_1: -1 Y_tilde_PT_Bio,6_ + 1 N_PT_Bio,(6,_9)_ <= 0
c938_1: -6.3903762799479235e6 W_PT_Bio,(6,_9)_ + 1 N_PT_Bio,(6,_9)_ <= 0
c939_1: -1 Y_tilde_PT_Bio,6_ + 1 N_PT_Bio,(6,_10)_ <= 0
c940_1: -7.987970349934906e6 W_PT_Bio,(6,_10)_ + 1 N_PT_Bio,(6,_10)_ <= 0
c941_1: -1 Y_tilde_PT_Bio,7_ + 1 N_PT_Bio,(7,_7)_ <= 0
c942_1: -1.5975940699869809e6 W_PT_Bio,(7,_7)_ + 1 N_PT_Bio,(7,_7)_ <= 0
c943_1: -1 Y_tilde_PT_Bio,7_ + 1 N_PT_Bio,(7,_8)_ <= 0
c944_1: -3.195188139973961e6 W_PT_Bio,(7,_8)_ + 1 N_PT_Bio,(7,_8)_ <= 0
c945_1: -1 Y_tilde_PT_Bio,7_ + 1 N_PT_Bio,(7,_9)_ <= 0
c946_1: -4.792782209960941e6 W_PT_Bio,(7,_9)_ + 1 N_PT_Bio,(7,_9)_ <= 0
c947_1: -1 Y_tilde_PT_Bio,7_ + 1 N_PT_Bio,(7,_10)_ <= 0
c948_1: -6.3903762799479235e6 W_PT_Bio,(7,_10)_ + 1 N_PT_Bio,(7,_10)_ <= 0
c949_1: -1 Y_tilde_PT_Bio,8_ + 1 N_PT_Bio,(8,_8)_ <= 0
c950_1: -1.5975940699869809e6 W_PT_Bio,(8,_8)_ + 1 N_PT_Bio,(8,_8)_ <= 0
c951_1: -1 Y_tilde_PT_Bio,8_ + 1 N_PT_Bio,(8,_9)_ <= 0
c952_1: -3.195188139973961e6 W_PT_Bio,(8,_9)_ + 1 N_PT_Bio,(8,_9)_ <= 0
c953_1: -1 Y_tilde_PT_Bio,8_ + 1 N_PT_Bio,(8,_10)_ <= 0
c954_1: -4.792782209960941e6 W_PT_Bio,(8,_10)_ + 1 N_PT_Bio,(8,_10)_ <= 0
c955_1: -1 Y_tilde_PT_Bio,9_ + 1 N_PT_Bio,(9,_9)_ <= 0
c956_1: -1.5975940699869809e6 W_PT_Bio,(9,_9)_ + 1 N_PT_Bio,(9,_9)_ <= 0
c957_1: -1 Y_tilde_PT_Bio,9_ + 1 N_PT_Bio,(9,_10)_ <= 0
c958_1: -3.195188139973961e6 W_PT_Bio,(9,_10)_ + 1 N_PT_Bio,(9,_10)_ <= 0
c959_1: -1 Y_tilde_PT_Bio,10_ + 1 N_PT_Bio,(10,_10)_ <= 0
c960_1: -1.5975940699869809e6 W_PT_Bio,(10,_10)_ + 1 N_PT_Bio,(10,_10)_ <= 0
c961_1: -1 Y_tilde_Sanofi,1_ + 1 N_Sanofi,(1,_1)_ <= 0
c962_1: -8.432458449479176e7 W_Sanofi,(1,_1)_ + 1 N_Sanofi,(1,_1)_ <= 0
c963_1: -1 Y_tilde_Sanofi,1_ + 1 N_Sanofi,(1,_2)_ <= 0
c964_1: -1.6864916898958355e8 W_Sanofi,(1,_2)_ + 1 N_Sanofi,(1,_2)_ <= 0
c965_1: -1 Y_tilde_Sanofi,1_ + 1 N_Sanofi,(1,_3)_ <= 0
c966_1: -2.5297375348437536e8 W_Sanofi,(1,_3)_ + 1 N_Sanofi,(1,_3)_ <= 0
c967_1: -1 Y_tilde_Sanofi,1_ + 1 N_Sanofi,(1,_4)_ <= 0
c968_1: -3.3729833797916716e8 W_Sanofi,(1,_4)_ + 1 N_Sanofi,(1,_4)_ <= 0
c969_1: -1 Y_tilde_Sanofi,1_ + 1 N_Sanofi,(1,_5)_ <= 0
c970_1: -4.2162292247395897e8 W_Sanofi,(1,_5)_ + 1 N_Sanofi,(1,_5)_ <= 0
c971_1: -1 Y_tilde_Sanofi,2_ + 1 N_Sanofi,(2,_2)_ <= 0
c972_1: -8.432458449479176e7 W_Sanofi,(2,_2)_ + 1 N_Sanofi,(2,_2)_ <= 0
c973_1: -1 Y_tilde_Sanofi,2_ + 1 N_Sanofi,(2,_3)_ <= 0
c974_1: -1.6864916898958355e8 W_Sanofi,(2,_3)_ + 1 N_Sanofi,(2,_3)_ <= 0
c975_1: -1 Y_tilde_Sanofi,2_ + 1 N_Sanofi,(2,_4)_ <= 0
c976_1: -2.5297375348437536e8 W_Sanofi,(2,_4)_ + 1 N_Sanofi,(2,_4)_ <= 0
c977_1: -1 Y_tilde_Sanofi,2_ + 1 N_Sanofi,(2,_5)_ <= 0
c978_1: -3.3729833797916716e8 W_Sanofi,(2,_5)_ + 1 N_Sanofi,(2,_5)_ <= 0
c979_1: -1 Y_tilde_Sanofi,2_ + 1 N_Sanofi,(2,_6)_ <= 0
c980_1: -4.2162292247395897e8 W_Sanofi,(2,_6)_ + 1 N_Sanofi,(2,_6)_ <= 0
c981_1: -1 Y_tilde_Sanofi,3_ + 1 N_Sanofi,(3,_3)_ <= 0
c982_1: -8.432458449479176e7 W_Sanofi,(3,_3)_ + 1 N_Sanofi,(3,_3)_ <= 0
c983_1: -1 Y_tilde_Sanofi,3_ + 1 N_Sanofi,(3,_4)_ <= 0
c984_1: -1.6864916898958355e8 W_Sanofi,(3,_4)_ + 1 N_Sanofi,(3,_4)_ <= 0
c985_1: -1 Y_tilde_Sanofi,3_ + 1 N_Sanofi,(3,_5)_ <= 0
c986_1: -2.5297375348437536e8 W_Sanofi,(3,_5)_ + 1 N_Sanofi,(3,_5)_ <= 0
c987_1: -1 Y_tilde_Sanofi,3_ + 1 N_Sanofi,(3,_6)_ <= 0
c988_1: -3.3729833797916716e8 W_Sanofi,(3,_6)_ + 1 N_Sanofi,(3,_6)_ <= 0
c989_1: -1 Y_tilde_Sanofi,3_ + 1 N_Sanofi,(3,_7)_ <= 0
c990_1: -4.2162292247395897e8 W_Sanofi,(3,_7)_ + 1 N_Sanofi,(3,_7)_ <= 0
c991_1: -1 Y_tilde_Sanofi,4_ + 1 N_Sanofi,(4,_4)_ <= 0
c992_1: -8.432458449479176e7 W_Sanofi,(4,_4)_ + 1 N_Sanofi,(4,_4)_ <= 0
c993_1: -1 Y_tilde_Sanofi,4_ + 1 N_Sanofi,(4,_5)_ <= 0
c994_1: -1.6864916898958355e8 W_Sanofi,(4,_5)_ + 1 N_Sanofi,(4,_5)_ <= 0
c995_1: -1 Y_tilde_Sanofi,4_ + 1 N_Sanofi,(4,_6)_ <= 0
c996_1: -2.5297375348437536e8 W_Sanofi,(4,_6)_ + 1 N_Sanofi,(4,_6)_ <= 0
c997_1: -1 Y_tilde_Sanofi,4_ + 1 N_Sanofi,(4,_7)_ <= 0
c998_1: -3.3729833797916716e8 W_Sanofi,(4,_7)_ + 1 N_Sanofi,(4,_7)_ <= 0
c999_1: -1 Y_tilde_Sanofi,4_ + 1 N_Sanofi,(4,_8)_ <= 0
c1000_1: -4.2162292247395897e8 W_Sanofi,(4,_8)_ + 1 N_Sanofi,(4,_8)_ <= 0
c1001_1: -1 Y_tilde_Sanofi,5_ + 1 N_Sanofi,(5,_5)_ <= 0
c1002_1: -8.432458449479176e7 W_Sanofi,(5,_5)_ + 1 N_Sanofi,(5,_5)_ <= 0
c1003_1: -1 Y_tilde_Sanofi,5_ + 1 N_Sanofi,(5,_6)_ <= 0
c1004_1: -1.6864916898958355e8 W_Sanofi,(5,_6)_ + 1 N_Sanofi,(5,_6)_ <= 0
c1005_1: -1 Y_tilde_Sanofi,5_ + 1 N_Sanofi,(5,_7)_ <= 0
c1006_1: -2.5297375348437536e8 W_Sanofi,(5,_7)_ + 1 N_Sanofi,(5,_7)_ <= 0
c1007_1: -1 Y_tilde_Sanofi,5_ + 1 N_Sanofi,(5,_8)_ <= 0
c1008_1: -3.3729833797916716e8 W_Sanofi,(5,_8)_ + 1 N_Sanofi,(5,_8)_ <= 0
c1009_1: -1 Y_tilde_Sanofi,5_ + 1 N_Sanofi,(5,_9)_ <= 0
c1010_1: -4.2162292247395897e8 W_Sanofi,(5,_9)_ + 1 N_Sanofi,(5,_9)_ <= 0
c1011_1: -1 Y_tilde_Sanofi,6_ + 1 N_Sanofi,(6,_6)_ <= 0
c1012_1: -8.432458449479176e7 W_Sanofi,(6,_6)_ + 1 N_Sanofi,(6,_6)_ <= 0
c1013_1: -1 Y_tilde_Sanofi,6_ + 1 N_Sanofi,(6,_7)_ <= 0
c1014_1: -1.6864916898958355e8 W_Sanofi,(6,_7)_ + 1 N_Sanofi,(6,_7)_ <= 0
c1015_1: -1 Y_tilde_Sanofi,6_ + 1 N_Sanofi,(6,_8)_ <= 0
c1016_1: -2.5297375348437536e8 W_Sanofi,(6,_8)_ + 1 N_Sanofi,(6,_8)_ <= 0
c1017_1: -1 Y_tilde_Sanofi,6_ + 1 N_Sanofi,(6,_9)_ <= 0
c1018_1: -3.3729833797916716e8 W_Sanofi,(6,_9)_ + 1 N_Sanofi,(6,_9)_ <= 0
c1019_1: -1 Y_tilde_Sanofi,6_ + 1 N_Sanofi,(6,_10)_ <= 0
c1020_1: -4.2162292247395897e8 W_Sanofi,(6,_10)_ + 1 N_Sanofi,(6,_10)_ <= 0
c1021_1: -1 Y_tilde_Sanofi,7_ + 1 N_Sanofi,(7,_7)_ <= 0
c1022_1: -8.432458449479176e7 W_Sanofi,(7,_7)_ + 1 N_Sanofi,(7,_7)_ <= 0
c1023_1: -1 Y_tilde_Sanofi,7_ + 1 N_Sanofi,(7,_8)_ <= 0
c1024_1: -1.6864916898958355e8 W_Sanofi,(7,_8)_ + 1 N_Sanofi,(7,_8)_ <= 0
c1025_1: -1 Y_tilde_Sanofi,7_ + 1 N_Sanofi,(7,_9)_ <= 0
c1026_1: -2.5297375348437536e8 W_Sanofi,(7,_9)_ + 1 N_Sanofi,(7,_9)_ <= 0
c1027_1: -1 Y_tilde_Sanofi,7_ + 1 N_Sanofi,(7,_10)_ <= 0
c1028_1: -3.3729833797916716e8 W_Sanofi,(7,_10)_ + 1 N_Sanofi,(7,_10)_ <= 0
c1029_1: -1 Y_tilde_Sanofi,8_ + 1 N_Sanofi,(8,_8)_ <= 0
c1030_1: -8.432458449479176e7 W_Sanofi,(8,_8)_ + 1 N_Sanofi,(8,_8)_ <= 0
c1031_1: -1 Y_tilde_Sanofi,8_ + 1 N_Sanofi,(8,_9)_ <= 0
c1032_1: -1.6864916898958355e8 W_Sanofi,(8,_9)_ + 1 N_Sanofi,(8,_9)_ <= 0
c1033_1: -1 Y_tilde_Sanofi,8_ + 1 N_Sanofi,(8,_10)_ <= 0
c1034_1: -2.5297375348437536e8 W_Sanofi,(8,_10)_ + 1 N_Sanofi,(8,_10)_ <= 0
c1035_1: -1 Y_tilde_Sanofi,9_ + 1 N_Sanofi,(9,_9)_ <= 0
c1036_1: -8.432458449479176e7 W_Sanofi,(9,_9)_ + 1 N_Sanofi,(9,_9)_ <= 0
c1037_1: -1 Y_tilde_Sanofi,9_ + 1 N_Sanofi,(9,_10)_ <= 0
c1038_1: -1.6864916898958355e8 W_Sanofi,(9,_10)_ + 1 N_Sanofi,(9,_10)_ <= 0
c1039_1: -1 Y_tilde_Sanofi,10_ + 1 N_Sanofi,(10,_10)_ <= 0
c1040_1: -8.432458449479176e7 W_Sanofi,(10,_10)_ + 1 N_Sanofi,(10,_10)_ <= 0
c1041_1: -1 Y_tilde_Serum_Institute,1_ + 1 N_Serum_Institute,(1,_1)_ <= 0
c1042_1: -2.1563631030093148e8 W_Serum_Institute,(1,_1)_ + 1 N_Serum_Institute,(1,_1)_ <= 0
c1043_1: -1 Y_tilde_Serum_Institute,1_ + 1 N_Serum_Institute,(1,_2)_ <= 0
c1044_1: -4.312726206018629e8 W_Serum_Institute,(1,_2)_ + 1 N_Serum_Institute,(1,_2)_ <= 0
c1045_1: -1 Y_tilde_Serum_Institute,1_ + 1 N_Serum_Institute,(1,_3)_ <= 0
c1046_1: -6.469089309027947e8 W_Serum_Institute,(1,_3)_ + 1 N_Serum_Institute,(1,_3)_ <= 0
c1047_1: -1 Y_tilde_Serum_Institute,1_ + 1 N_Serum_Institute,(1,_4)_ <= 0
c1048_1: -8.625452412037269e8 W_Serum_Institute,(1,_4)_ + 1 N_Serum_Institute,(1,_4)_ <= 0
c1049_1: -1 Y_tilde_Serum_Institute,1_ + 1 N_Serum_Institute,(1,_5)_ <= 0
c1050_1: -1.078181551504659e9 W_Serum_Institute,(1,_5)_ + 1 N_Serum_Institute,(1,_5)_ <= 0
c1051_1: -1 Y_tilde_Serum_Institute,2_ + 1 N_Serum_Institute,(2,_2)_ <= 0
c1052_1: -2.1563631030093148e8 W_Serum_Institute,(2,_2)_ + 1 N_Serum_Institute,(2,_2)_ <= 0
c1053_1: -1 Y_tilde_Serum_Institute,2_ + 1 N_Serum_Institute,(2,_3)_ <= 0
c1054_1: -4.312726206018629e8 W_Serum_Institute,(2,_3)_ + 1 N_Serum_Institute,(2,_3)_ <= 0
c1055_1: -1 Y_tilde_Serum_Institute,2_ + 1 N_Serum_Institute,(2,_4)_ <= 0
c1056_1: -6.469089309027947e8 W_Serum_Institute,(2,_4)_ + 1 N_Serum_Institute,(2,_4)_ <= 0
c1057_1: -1 Y_tilde_Serum_Institute,2_ + 1 N_Serum_Institute,(2,_5)_ <= 0
c1058_1: -8.625452412037269e8 W_Serum_Institute,(2,_5)_ + 1 N_Serum_Institute,(2,_5)_ <= 0
c1059_1: -1 Y_tilde_Serum_Institute,2_ + 1 N_Serum_Institute,(2,_6)_ <= 0
c1060_1: -1.078181551504659e9 W_Serum_Institute,(2,_6)_ + 1 N_Serum_Institute,(2,_6)_ <= 0
c1061_1: -1 Y_tilde_Serum_Institute,3_ + 1 N_Serum_Institute,(3,_3)_ <= 0
c1062_1: -2.1563631030093148e8 W_Serum_Institute,(3,_3)_ + 1 N_Serum_Institute,(3,_3)_ <= 0
c1063_1: -1 Y_tilde_Serum_Institute,3_ + 1 N_Serum_Institute,(3,_4)_ <= 0
c1064_1: -4.312726206018629e8 W_Serum_Institute,(3,_4)_ + 1 N_Serum_Institute,(3,_4)_ <= 0
c1065_1: -1 Y_tilde_Serum_Institute,3_ + 1 N_Serum_Institute,(3,_5)_ <= 0
c1066_1: -6.469089309027947e8 W_Serum_Institute,(3,_5)_ + 1 N_Serum_Institute,(3,_5)_ <= 0
c1067_1: -1 Y_tilde_Serum_Institute,3_ + 1 N_Serum_Institute,(3,_6)_ <= 0
c1068_1: -8.625452412037269e8 W_Serum_Institute,(3,_6)_ + 1 N_Serum_Institute,(3,_6)_ <= 0
c1069_1: -1 Y_tilde_Serum_Institute,3_ + 1 N_Serum_Institute,(3,_7)_ <= 0
c1070_1: -1.078181551504659e9 W_Serum_Institute,(3,_7)_ + 1 N_Serum_Institute,(3,_7)_ <= 0
c1071_1: -1 Y_tilde_Serum_Institute,4_ + 1 N_Serum_Institute,(4,_4)_ <= 0
c1072_1: -2.1563631030093148e8 W_Serum_Institute,(4,_4)_ + 1 N_Serum_Institute,(4,_4)_ <= 0
c1073_1: -1 Y_tilde_Serum_Institute,4_ + 1 N_Serum_Institute,(4,_5)_ <= 0
c1074_1: -4.312726206018629e8 W_Serum_Institute,(4,_5)_ + 1 N_Serum_Institute,(4,_5)_ <= 0
c1075_1: -1 Y_tilde_Serum_Institute,4_ + 1 N_Serum_Institute,(4,_6)_ <= 0
c1076_1: -6.469089309027947e8 W_Serum_Institute,(4,_6)_ + 1 N_Serum_Institute,(4,_6)_ <= 0
c1077_1: -1 Y_tilde_Serum_Institute,4_ + 1 N_Serum_Institute,(4,_7)_ <= 0
c1078_1: -8.625452412037269e8 W_Serum_Institute,(4,_7)_ + 1 N_Serum_Institute,(4,_7)_ <= 0
c1079_1: -1 Y_tilde_Serum_Institute,4_ + 1 N_Serum_Institute,(4,_8)_ <= 0
c1080_1: -1.078181551504659e9 W_Serum_Institute,(4,_8)_ + 1 N_Serum_Institute,(4,_8)_ <= 0
c1081_1: -1 Y_tilde_Serum_Institute,5_ + 1 N_Serum_Institute,(5,_5)_ <= 0
c1082_1: -2.1563631030093148e8 W_Serum_Institute,(5,_5)_ + 1 N_Serum_Institute,(5,_5)_ <= 0
c1083_1: -1 Y_tilde_Serum_Institute,5_ + 1 N_Serum_Institute,(5,_6)_ <= 0
c1084_1: -4.312726206018629e8 W_Serum_Institute,(5,_6)_ + 1 N_Serum_Institute,(5,_6)_ <= 0
c1085_1: -1 Y_tilde_Serum_Institute,5_ + 1 N_Serum_Institute,(5,_7)_ <= 0
c1086_1: -6.469089309027947e8 W_Serum_Institute,(5,_7)_ + 1 N_Serum_Institute,(5,_7)_ <= 0
c1087_1: -1 Y_tilde_Serum_Institute,5_ + 1 N_Serum_Institute,(5,_8)_ <= 0
c1088_1: -8.625452412037269e8 W_Serum_Institute,(5,_8)_ + 1 N_Serum_Institute,(5,_8)_ <= 0
c1089_1: -1 Y_tilde_Serum_Institute,5_ + 1 N_Serum_Institute,(5,_9)_ <= 0
c1090_1: -1.078181551504659e9 W_Serum_Institute,(5,_9)_ + 1 N_Serum_Institute,(5,_9)_ <= 0
c1091_1: -1 Y_tilde_Serum_Institute,6_ + 1 N_Serum_Institute,(6,_6)_ <= 0
c1092_1: -2.1563631030093148e8 W_Serum_Institute,(6,_6)_ + 1 N_Serum_Institute,(6,_6)_ <= 0
c1093_1: -1 Y_tilde_Serum_Institute,6_ + 1 N_Serum_Institute,(6,_7)_ <= 0
c1094_1: -4.312726206018629e8 W_Serum_Institute,(6,_7)_ + 1 N_Serum_Institute,(6,_7)_ <= 0
c1095_1: -1 Y_tilde_Serum_Institute,6_ + 1 N_Serum_Institute,(6,_8)_ <= 0
c1096_1: -6.469089309027947e8 W_Serum_Institute,(6,_8)_ + 1 N_Serum_Institute,(6,_8)_ <= 0
c1097_1: -1 Y_tilde_Serum_Institute,6_ + 1 N_Serum_Institute,(6,_9)_ <= 0
c1098_1: -8.625452412037269e8 W_Serum_Institute,(6,_9)_ + 1 N_Serum_Institute,(6,_9)_ <= 0
c1099_1: -1 Y_tilde_Serum_Institute,6_ + 1 N_Serum_Institute,(6,_10)_ <= 0
c1100_1: -1.078181551504659e9 W_Serum_Institute,(6,_10)_ + 1 N_Serum_Institute,(6,_10)_ <= 0
c1101_1: -1 Y_tilde_Serum_Institute,7_ + 1 N_Serum_Institute,(7,_7)_ <= 0
c1102_1: -2.1563631030093148e8 W_Serum_Institute,(7,_7)_ + 1 N_Serum_Institute,(7,_7)_ <= 0
c1103_1: -1 Y_tilde_Serum_Institute,7_ + 1 N_Serum_Institute,(7,_8)_ <= 0
c1104_1: -4.312726206018629e8 W_Serum_Institute,(7,_8)_ + 1 N_Serum_Institute,(7,_8)_ <= 0
c1105_1: -1 Y_tilde_Serum_Institute,7_ + 1 N_Serum_Institute,(7,_9)_ <= 0
c1106_1: -6.469089309027947e8 W_Serum_Institute,(7,_9)_ + 1 N_Serum_Institute,(7,_9)_ <= 0
c1107_1: -1 Y_tilde_Serum_Institute,7_ + 1 N_Serum_Institute,(7,_10)_ <= 0
c1108_1: -8.625452412037269e8 W_Serum_Institute,(7,_10)_ + 1 N_Serum_Institute,(7,_10)_ <= 0
c1109_1: -1 Y_tilde_Serum_Institute,8_ + 1 N_Serum_Institute,(8,_8)_ <= 0
c1110_1: -2.1563631030093148e8 W_Serum_Institute,(8,_8)_ + 1 N_Serum_Institute,(8,_8)_ <= 0
c1111_1: -1 Y_tilde_Serum_Institute,8_ + 1 N_Serum_Institute,(8,_9)_ <= 0
c1112_1: -4.312726206018629e8 W_Serum_Institute,(8,_9)_ + 1 N_Serum_Institute,(8,_9)_ <= 0
c1113_1: -1 Y_tilde_Serum_Institute,8_ + 1 N_Serum_Institute,(8,_10)_ <= 0
c1114_1: -6.469089309027947e8 W_Serum_Institute,(8,_10)_ + 1 N_Serum_Institute,(8,_10)_ <= 0
c1115_1: -1 Y_tilde_Serum_Institute,9_ + 1 N_Serum_Institute,(9,_9)_ <= 0
c1116_1: -2.1563631030093148e8 W_Serum_Institute,(9,_9)_ + 1 N_Serum_Institute,(9,_9)_ <= 0
c1117_1: -1 Y_tilde_Serum_Institute,9_ + 1 N_Serum_Institute,(9,_10)_ <= 0
c1118_1: -4.312726206018629e8 W_Serum_Institute,(9,_10)_ + 1 N_Serum_Institute,(9,_10)_ <= 0
c1119_1: -1 Y_tilde_Serum_Institute,10_ + 1 N_Serum_Institute,(10,_10)_ <= 0
c1120_1: -2.1563631030093148e8 W_Serum_Institute,(10,_10)_ + 1 N_Serum_Institute,(10,_10)_ <= 0
c1121_1: -1 Y_tilde_Pfizer,1_ + 1 N_Pfizer,(1,_1)_ <= 0
c1122_1: -7.323806423828126e7 W_Pfizer,(1,_1)_ + 1 N_Pfizer,(1,_1)_ <= 0
c1123_1: -1 Y_tilde_Pfizer,1_ + 1 N_Pfizer,(1,_2)_ <= 0
c1124_1: -1.4647612847656253e8 W_Pfizer,(1,_2)_ + 1 N_Pfizer,(1,_2)_ <= 0
c1125_1: -1 Y_tilde_Pfizer,1_ + 1 N_Pfizer,(1,_3)_ <= 0
c1126_1: -2.1971419271484378e8 W_Pfizer,(1,_3)_ + 1 N_Pfizer,(1,_3)_ <= 0
c1127_1: -1 Y_tilde_Pfizer,1_ + 1 N_Pfizer,(1,_4)_ <= 0
c1128_1: -2.9295225695312506e8 W_Pfizer,(1,_4)_ + 1 N_Pfizer,(1,_4)_ <= 0
c1129_1: -1 Y_tilde_Pfizer,1_ + 1 N_Pfizer,(1,_5)_ <= 0
c1130_1: -3.661903211914063e8 W_Pfizer,(1,_5)_ + 1 N_Pfizer,(1,_5)_ <= 0
c1131_1: -1 Y_tilde_Pfizer,2_ + 1 N_Pfizer,(2,_2)_ <= 0
c1132_1: -7.323806423828126e7 W_Pfizer,(2,_2)_ + 1 N_Pfizer,(2,_2)_ <= 0
c1133_1: -1 Y_tilde_Pfizer,2_ + 1 N_Pfizer,(2,_3)_ <= 0
c1134_1: -1.4647612847656253e8 W_Pfizer,(2,_3)_ + 1 N_Pfizer,(2,_3)_ <= 0
c1135_1: -1 Y_tilde_Pfizer,2_ + 1 N_Pfizer,(2,_4)_ <= 0
c1136_1: -2.1971419271484378e8 W_Pfizer,(2,_4)_ + 1 N_Pfizer,(2,_4)_ <= 0
c1137_1: -1 Y_tilde_Pfizer,2_ + 1 N_Pfizer,(2,_5)_ <= 0
c1138_1: -2.9295225695312506e8 W_Pfizer,(2,_5)_ + 1 N_Pfizer,(2,_5)_ <= 0
c1139_1: -1 Y_tilde_Pfizer,2_ + 1 N_Pfizer,(2,_6)_ <= 0
c1140_1: -3.661903211914063e8 W_Pfizer,(2,_6)_ + 1 N_Pfizer,(2,_6)_ <= 0
c1141_1: -1 Y_tilde_Pfizer,3_ + 1 N_Pfizer,(3,_3)_ <= 0
c1142_1: -7.323806423828126e7 W_Pfizer,(3,_3)_ + 1 N_Pfizer,(3,_3)_ <= 0
c1143_1: -1 Y_tilde_Pfizer,3_ + 1 N_Pfizer,(3,_4)_ <= 0
c1144_1: -1.4647612847656253e8 W_Pfizer,(3,_4)_ + 1 N_Pfizer,(3,_4)_ <= 0
c1145_1: -1 Y_tilde_Pfizer,3_ + 1 N_Pfizer,(3,_5)_ <= 0
c1146_1: -2.1971419271484378e8 W_Pfizer,(3,_5)_ + 1 N_Pfizer,(3,_5)_ <= 0
c1147_1: -1 Y_tilde_Pfizer,3_ + 1 N_Pfizer,(3,_6)_ <= 0
c1148_1: -2.9295225695312506e8 W_Pfizer,(3,_6)_ + 1 N_Pfizer,(3,_6)_ <= 0
c1149_1: -1 Y_tilde_Pfizer,3_ + 1 N_Pfizer,(3,_7)_ <= 0
c1150_1: -3.661903211914063e8 W_Pfizer,(3,_7)_ + 1 N_Pfizer,(3,_7)_ <= 0
c1151_1: -1 Y_tilde_Pfizer,4_ + 1 N_Pfizer,(4,_4)_ <= 0
c1152_1: -7.323806423828126e7 W_Pfizer,(4,_4)_ + 1 N_Pfizer,(4,_4)_ <= 0
c1153_1: -1 Y_tilde_Pfizer,4_ + 1 N_Pfizer,(4,_5)_ <= 0
c1154_1: -1.4647612847656253e8 W_Pfizer,(4,_5)_ + 1 N_Pfizer,(4,_5)_ <= 0
c1155_1: -1 Y_tilde_Pfizer,4_ + 1 N_Pfizer,(4,_6)_ <= 0
c1156_1: -2.1971419271484378e8 W_Pfizer,(4,_6)_ + 1 N_Pfizer,(4,_6)_ <= 0
c1157_1: -1 Y_tilde_Pfizer,4_ + 1 N_Pfizer,(4,_7)_ <= 0
c1158_1: -2.9295225695312506e8 W_Pfizer,(4,_7)_ + 1 N_Pfizer,(4,_7)_ <= 0
c1159_1: -1 Y_tilde_Pfizer,4_ + 1 N_Pfizer,(4,_8)_ <= 0
c1160_1: -3.661903211914063e8 W_Pfizer,(4,_8)_ + 1 N_Pfizer,(4,_8)_ <= 0
c1161_1: -1 Y_tilde_Pfizer,5_ + 1 N_Pfizer,(5,_5)_ <= 0
c1162_1: -7.323806423828126e7 W_Pfizer,(5,_5)_ + 1 N_Pfizer,(5,_5)_ <= 0
c1163_1: -1 Y_tilde_Pfizer,5_ + 1 N_Pfizer,(5,_6)_ <= 0
c1164_1: -1.4647612847656253e8 W_Pfizer,(5,_6)_ + 1 N_Pfizer,(5,_6)_ <= 0
c1165_1: -1 Y_tilde_Pfizer,5_ + 1 N_Pfizer,(5,_7)_ <= 0
c1166_1: -2.1971419271484378e8 W_Pfizer,(5,_7)_ + 1 N_Pfizer,(5,_7)_ <= 0
c1167_1: -1 Y_tilde_Pfizer,5_ + 1 N_Pfizer,(5,_8)_ <= 0
c1168_1: -2.9295225695312506e8 W_Pfizer,(5,_8)_ + 1 N_Pfizer,(5,_8)_ <= 0
c1169_1: -1 Y_tilde_Pfizer,5_ + 1 N_Pfizer,(5,_9)_ <= 0
c1170_1: -3.661903211914063e8 W_Pfizer,(5,_9)_ + 1 N_Pfizer,(5,_9)_ <= 0
c1171_1: -1 Y_tilde_Pfizer,6_ + 1 N_Pfizer,(6,_6)_ <= 0
c1172_1: -7.323806423828126e7 W_Pfizer,(6,_6)_ + 1 N_Pfizer,(6,_6)_ <= 0
c1173_1: -1 Y_tilde_Pfizer,6_ + 1 N_Pfizer,(6,_7)_ <= 0
c1174_1: -1.4647612847656253e8 W_Pfizer,(6,_7)_ + 1 N_Pfizer,(6,_7)_ <= 0
c1175_1: -1 Y_tilde_Pfizer,6_ + 1 N_Pfizer,(6,_8)_ <= 0
c1176_1: -2.1971419271484378e8 W_Pfizer,(6,_8)_ + 1 N_Pfizer,(6,_8)_ <= 0
c1177_1: -1 Y_tilde_Pfizer,6_ + 1 N_Pfizer,(6,_9)_ <= 0
c1178_1: -2.9295225695312506e8 W_Pfizer,(6,_9)_ + 1 N_Pfizer,(6,_9)_ <= 0
c1179_1: -1 Y_tilde_Pfizer,6_ + 1 N_Pfizer,(6,_10)_ <= 0
c1180_1: -3.661903211914063e8 W_Pfizer,(6,_10)_ + 1 N_Pfizer,(6,_10)_ <= 0
c1181_1: -1 Y_tilde_Pfizer,7_ + 1 N_Pfizer,(7,_7)_ <= 0
c1182_1: -7.323806423828126e7 W_Pfizer,(7,_7)_ + 1 N_Pfizer,(7,_7)_ <= 0
c1183_1: -1 Y_tilde_Pfizer,7_ + 1 N_Pfizer,(7,_8)_ <= 0
c1184_1: -1.4647612847656253e8 W_Pfizer,(7,_8)_ + 1 N_Pfizer,(7,_8)_ <= 0
c1185_1: -1 Y_tilde_Pfizer,7_ + 1 N_Pfizer,(7,_9)_ <= 0
c1186_1: -2.1971419271484378e8 W_Pfizer,(7,_9)_ + 1 N_Pfizer,(7,_9)_ <= 0
c1187_1: -1 Y_tilde_Pfizer,7_ + 1 N_Pfizer,(7,_10)_ <= 0
c1188_1: -2.9295225695312506e8 W_Pfizer,(7,_10)_ + 1 N_Pfizer,(7,_10)_ <= 0
c1189_1: -1 Y_tilde_Pfizer,8_ + 1 N_Pfizer,(8,_8)_ <= 0
c1190_1: -7.323806423828126e7 W_Pfizer,(8,_8)_ + 1 N_Pfizer,(8,_8)_ <= 0
c1191_1: -1 Y_tilde_Pfizer,8_ + 1 N_Pfizer,(8,_9)_ <= 0
c1192_1: -1.4647612847656253e8 W_Pfizer,(8,_9)_ + 1 N_Pfizer,(8,_9)_ <= 0
c1193_1: -1 Y_tilde_Pfizer,8_ + 1 N_Pfizer,(8,_10)_ <= 0
c1194_1: -2.1971419271484378e8 W_Pfizer,(8,_10)_ + 1 N_Pfizer,(8,_10)_ <= 0
c1195_1: -1 Y_tilde_Pfizer,9_ + 1 N_Pfizer,(9,_9)_ <= 0
c1196_1: -7.323806423828126e7 W_Pfizer,(9,_9)_ + 1 N_Pfizer,(9,_9)_ <= 0
c1197_1: -1 Y_tilde_Pfizer,9_ + 1 N_Pfizer,(9,_10)_ <= 0
c1198_1: -1.4647612847656253e8 W_Pfizer,(9,_10)_ + 1 N_Pfizer,(9,_10)_ <= 0
c1199_1: -1 Y_tilde_Pfizer,10_ + 1 N_Pfizer,(10,_10)_ <= 0
c1200_1: -7.323806423828126e7 W_Pfizer,(10,_10)_ + 1 N_Pfizer,(10,_10)_ <= 0
c1_1: 2.262625 Q_IPV,AJ_Vaccines,(1,_1),1_ + 2.2173724999999997 Q_IPV,AJ_Vaccines,(1,_1),2_ + 2.14949375 Q_IPV,AJ_Vaccines,(1,_1),3_ - 1 N_AJ_Vaccines,(1,_1)_ >= 0
c2_1: -5.477953249999999e6 W_AJ_Vaccines,(1,_1)_ - 1 Y_tilde_AJ_Vaccines,1_ + 1 N_AJ_Vaccines,(1,_1)_ >= -5.477953249999999e6
c3_1: 2.262625 Q_IPV,AJ_Vaccines,(1,_2),1_ + 2.2173724999999997 Q_IPV,AJ_Vaccines,(1,_2),2_ + 2.14949375 Q_IPV,AJ_Vaccines,(1,_2),3_ - 1 N_AJ_Vaccines,(1,_2)_ >= 0
c4_1: -1.0955906499999998e7 W_AJ_Vaccines,(1,_2)_ - 1 Y_tilde_AJ_Vaccines,1_ + 1 N_AJ_Vaccines,(1,_2)_ >= -1.0955906499999998e7
c5_1: 2.262625 Q_IPV,AJ_Vaccines,(1,_3),1_ + 2.2173724999999997 Q_IPV,AJ_Vaccines,(1,_3),2_ + 2.14949375 Q_IPV,AJ_Vaccines,(1,_3),3_ - 1 N_AJ_Vaccines,(1,_3)_ >= 0
c6_1: -1.6433859749999998e7 W_AJ_Vaccines,(1,_3)_ - 1 Y_tilde_AJ_Vaccines,1_ + 1 N_AJ_Vaccines,(1,_3)_ >= -1.6433859749999998e7
c7_1: 2.262625 Q_IPV,AJ_Vaccines,(1,_4),1_ + 2.2173724999999997 Q_IPV,AJ_Vaccines,(1,_4),2_ + 2.14949375 Q_IPV,AJ_Vaccines,(1,_4),3_ - 1 N_AJ_Vaccines,(1,_4)_ >= 0
c8_1: -2.1911812999999996e7 W_AJ_Vaccines,(1,_4)_ - 1 Y_tilde_AJ_Vaccines,1_ + 1 N_AJ_Vaccines,(1,_4)_ >= -2.1911812999999996e7
c9_1: 2.262625 Q_IPV,AJ_Vaccines,(1,_5),1_ + 2.2173724999999997 Q_IPV,AJ_Vaccines,(1,_5),2_ + 2.14949375 Q_IPV,AJ_Vaccines,(1,_5),3_ - 1 N_AJ_Vaccines,(1,_5)_ >= 0
c10_1: -2.7389766249999996e7 W_AJ_Vaccines,(1,_5)_ - 1 Y_tilde_AJ_Vaccines,1_ + 1 N_AJ_Vaccines,(1,_5)_ >= -2.7389766249999996e7
c11_1: 1.987625 Q_IPV,AJ_Vaccines,(2,_2),1_ + 1.9478725 Q_IPV,AJ_Vaccines,(2,_2),2_ + 1.88824375 Q_IPV,AJ_Vaccines,(2,_2),3_ - 1 N_AJ_Vaccines,(2,_2)_ >= 0
c12_1: -5.477953249999999e6 W_AJ_Vaccines,(2,_2)_ - 1 Y_tilde_AJ_Vaccines,2_ + 1 N_AJ_Vaccines,(2,_2)_ >= -5.477953249999999e6
c13_1: 1.987625 Q_IPV,AJ_Vaccines,(2,_3),1_ + 1.9478725 Q_IPV,AJ_Vaccines,(2,_3),2_ + 1.88824375 Q_IPV,AJ_Vaccines,(2,_3),3_ - 1 N_AJ_Vaccines,(2,_3)_ >= 0
c14_1: -1.0955906499999998e7 W_AJ_Vaccines,(2,_3)_ - 1 Y_tilde_AJ_Vaccines,2_ + 1 N_AJ_Vaccines,(2,_3)_ >= -1.0955906499999998e7
c15_1: 1.987625 Q_IPV,AJ_Vaccines,(2,_4),1_ + 1.9478725 Q_IPV,AJ_Vaccines,(2,_4),2_ + 1.88824375 Q_IPV,AJ_Vaccines,(2,_4),3_ - 1 N_AJ_Vaccines,(2,_4)_ >= 0
c16_1: -1.6433859749999998e7 W_AJ_Vaccines,(2,_4)_ - 1 Y_tilde_AJ_Vaccines,2_ + 1 N_AJ_Vaccines,(2,_4)_ >= -1.6433859749999998e7
c17_1: 1.987625 Q_IPV,AJ_Vaccines,(2,_5),1_ + 1.9478725 Q_IPV,AJ_Vaccines,(2,_5),2_ + 1.88824375 Q_IPV,AJ_Vaccines,(2,_5),3_ - 1 N_AJ_Vaccines,(2,_5)_ >= 0
c18_1: -2.1911812999999996e7 W_AJ_Vaccines,(2,_5)_ - 1 Y_tilde_AJ_Vaccines,2_ + 1 N_AJ_Vaccines,(2,_5)_ >= -2.1911812999999996e7
c19_1: 1.987625 Q_IPV,AJ_Vaccines,(2,_6),1_ + 1.9478725 Q_IPV,AJ_Vaccines,(2,_6),2_ + 1.88824375 Q_IPV,AJ_Vaccines,(2,_6),3_ - 1 N_AJ_Vaccines,(2,_6)_ >= 0
c20_1: -2.7389766249999996e7 W_AJ_Vaccines,(2,_6)_ - 1 Y_tilde_AJ_Vaccines,2_ + 1 N_AJ_Vaccines,(2,_6)_ >= -2.7389766249999996e7
c21_1: 1.812625 Q_IPV,AJ_Vaccines,(3,_3),1_ + 1.7763725 Q_IPV,AJ_Vaccines,(3,_3),2_ + 1.7219937499999998 Q_IPV,AJ_Vaccines,(3,_3),3_ - 1 N_AJ_Vaccines,(3,_3)_ >= 0
c22_1: -5.477953249999999e6 W_AJ_Vaccines,(3,_3)_ - 1 Y_tilde_AJ_Vaccines,3_ + 1 N_AJ_Vaccines,(3,_3)_ >= -5.477953249999999e6
c23_1: 1.812625 Q_IPV,AJ_Vaccines,(3,_4),1_ + 1.7763725 Q_IPV,AJ_Vaccines,(3,_4),2_ + 1.7219937499999998 Q_IPV,AJ_Vaccines,(3,_4),3_ - 1 N_AJ_Vaccines,(3,_4)_ >= 0
c24_1: -1.0955906499999998e7 W_AJ_Vaccines,(3,_4)_ - 1 Y_tilde_AJ_Vaccines,3_ + 1 N_AJ_Vaccines,(3,_4)_ >= -1.0955906499999998e7
c25_1: 1.812625 Q_IPV,AJ_Vaccines,(3,_5),1_ + 1.7763725 Q_IPV,AJ_Vaccines,(3,_5),2_ + 1.7219937499999998 Q_IPV,AJ_Vaccines,(3,_5),3_ - 1 N_AJ_Vaccines,(3,_5)_ >= 0
c26_1: -1.6433859749999998e7 W_AJ_Vaccines,(3,_5)_ - 1 Y_tilde_AJ_Vaccines,3_ + 1 N_AJ_Vaccines,(3,_5)_ >= -1.6433859749999998e7
c27_1: 1.812625 Q_IPV,AJ_Vaccines,(3,_6),1_ + 1.7763725 Q_IPV,AJ_Vaccines,(3,_6),2_ + 1.7219937499999998 Q_IPV,AJ_Vaccines,(3,_6),3_ - 1 N_AJ_Vaccines,(3,_6)_ >= 0
c28_1: -2.1911812999999996e7 W_AJ_Vaccines,(3,_6)_ - 1 Y_tilde_AJ_Vaccines,3_ + 1 N_AJ_Vaccines,(3,_6)_ >= -2.1911812999999996e7
c29_1: 1.812625 Q_IPV,AJ_Vaccines,(3,_7),1_ + 1.7763725 Q_IPV,AJ_Vaccines,(3,_7),2_ + 1.7219937499999998 Q_IPV,AJ_Vaccines,(3,_7),3_ - 1 N_AJ_Vaccines,(3,_7)_ >= 0
c30_1: -2.7389766249999996e7 W_AJ_Vaccines,(3,_7)_ - 1 Y_tilde_AJ_Vaccines,3_ + 1 N_AJ_Vaccines,(3,_7)_ >= -2.7389766249999996e7
c31_1: 1.9208333333333334 Q_IPV,AJ_Vaccines,(4,_4),1_ + 1.8824166666666666 Q_IPV,AJ_Vaccines,(4,_4),2_ + 1.8247916666666666 Q_IPV,AJ_Vaccines,(4,_4),3_ - 1 N_AJ_Vaccines,(4,_4)_ >= 0
c32_1: -5.477953249999999e6 W_AJ_Vaccines,(4,_4)_ - 1 Y_tilde_AJ_Vaccines,4_ + 1 N_AJ_Vaccines,(4,_4)_ >= -5.477953249999999e6
c33_1: 1.9208333333333334 Q_IPV,AJ_Vaccines,(4,_5),1_ + 1.8824166666666666 Q_IPV,AJ_Vaccines,(4,_5),2_ + 1.8247916666666666 Q_IPV,AJ_Vaccines,(4,_5),3_ - 1 N_AJ_Vaccines,(4,_5)_ >= 0
c34_1: -1.0955906499999998e7 W_AJ_Vaccines,(4,_5)_ - 1 Y_tilde_AJ_Vaccines,4_ + 1 N_AJ_Vaccines,(4,_5)_ >= -1.0955906499999998e7
c35_1: 1.9208333333333334 Q_IPV,AJ_Vaccines,(4,_6),1_ + 1.8824166666666666 Q_IPV,AJ_Vaccines,(4,_6),2_ + 1.8247916666666666 Q_IPV,AJ_Vaccines,(4,_6),3_ - 1 N_AJ_Vaccines,(4,_6)_ >= 0
c36_1: -1.6433859749999998e7 W_AJ_Vaccines,(4,_6)_ - 1 Y_tilde_AJ_Vaccines,4_ + 1 N_AJ_Vaccines,(4,_6)_ >= -1.6433859749999998e7
c37_1: 1.9208333333333334 Q_IPV,AJ_Vaccines,(4,_7),1_ + 1.8824166666666666 Q_IPV,AJ_Vaccines,(4,_7),2_ + 1.8247916666666666 Q_IPV,AJ_Vaccines,(4,_7),3_ - 1 N_AJ_Vaccines,(4,_7)_ >= 0
c38_1: -2.1911812999999996e7 W_AJ_Vaccines,(4,_7)_ - 1 Y_tilde_AJ_Vaccines,4_ + 1 N_AJ_Vaccines,(4,_7)_ >= -2.1911812999999996e7
c39_1: 1.9208333333333334 Q_IPV,AJ_Vaccines,(4,_8),1_ + 1.8824166666666666 Q_IPV,AJ_Vaccines,(4,_8),2_ + 1.8247916666666666 Q_IPV,AJ_Vaccines,(4,_8),3_ - 1 N_AJ_Vaccines,(4,_8)_ >= 0
c40_1: -2.7389766249999996e7 W_AJ_Vaccines,(4,_8)_ - 1 Y_tilde_AJ_Vaccines,4_ + 1 N_AJ_Vaccines,(4,_8)_ >= -2.7389766249999996e7
c41_1: 1.9208333333333334 Q_IPV,AJ_Vaccines,(5,_5),1_ + 1.8824166666666666 Q_IPV,AJ_Vaccines,(5,_5),2_ + 1.8247916666666666 Q_IPV,AJ_Vaccines,(5,_5),3_ - 1 N_AJ_Vaccines,(5,_5)_ >= 0
c42_1: -5.477953249999999e6 W_AJ_Vaccines,(5,_5)_ - 1 Y_tilde_AJ_Vaccines,5_ + 1 N_AJ_Vaccines,(5,_5)_ >= -5.477953249999999e6
c43_1: 1.9208333333333334 Q_IPV,AJ_Vaccines,(5,_6),1_ + 1.8824166666666666 Q_IPV,AJ_Vaccines,(5,_6),2_ + 1.8247916666666666 Q_IPV,AJ_Vaccines,(5,_6),3_ - 1 N_AJ_Vaccines,(5,_6)_ >= 0
c44_1: -1.0955906499999998e7 W_AJ_Vaccines,(5,_6)_ - 1 Y_tilde_AJ_Vaccines,5_ + 1 N_AJ_Vaccines,(5,_6)_ >= -1.0955906499999998e7
c45_1: 1.9208333333333334 Q_IPV,AJ_Vaccines,(5,_7),1_ + 1.8824166666666666 Q_IPV,AJ_Vaccines,(5,_7),2_ + 1.8247916666666666 Q_IPV,AJ_Vaccines,(5,_7),3_ - 1 N_AJ_Vaccines,(5,_7)_ >= 0
c46_1: -1.6433859749999998e7 W_AJ_Vaccines,(5,_7)_ - 1 Y_tilde_AJ_Vaccines,5_ + 1 N_AJ_Vaccines,(5,_7)_ >= -1.6433859749999998e7
c47_1: 1.9208333333333334 Q_IPV,AJ_Vaccines,(5,_8),1_ + 1.8824166666666666 Q_IPV,AJ_Vaccines,(5,_8),2_ + 1.8247916666666666 Q_IPV,AJ_Vaccines,(5,_8),3_ - 1 N_AJ_Vaccines,(5,_8)_ >= 0
c48_1: -2.1911812999999996e7 W_AJ_Vaccines,(5,_8)_ - 1 Y_tilde_AJ_Vaccines,5_ + 1 N_AJ_Vaccines,(5,_8)_ >= -2.1911812999999996e7
c49_1: 1.9208333333333334 Q_IPV,AJ_Vaccines,(5,_9),1_ + 1.8824166666666666 Q_IPV,AJ_Vaccines,(5,_9),2_ + 1.8247916666666666 Q_IPV,AJ_Vaccines,(5,_9),3_ - 1 N_AJ_Vaccines,(5,_9)_ >= 0
c50_1: -2.7389766249999996e7 W_AJ_Vaccines,(5,_9)_ - 1 Y_tilde_AJ_Vaccines,5_ + 1 N_AJ_Vaccines,(5,_9)_ >= -2.7389766249999996e7
c51_1: 1.9208333333333334 Q_IPV,AJ_Vaccines,(6,_6),1_ + 1.8824166666666666 Q_IPV,AJ_Vaccines,(6,_6),2_ + 1.8247916666666666 Q_IPV,AJ_Vaccines,(6,_6),3_ - 1 N_AJ_Vaccines,(6,_6)_ >= 0
c52_1: -5.477953249999999e6 W_AJ_Vaccines,(6,_6)_ - 1 Y_tilde_AJ_Vaccines,6_ + 1 N_AJ_Vaccines,(6,_6)_ >= -5.477953249999999e6
c53_1: 1.9208333333333334 Q_IPV,AJ_Vaccines,(6,_7),1_ + 1.8824166666666666 Q_IPV,AJ_Vaccines,(6,_7),2_ + 1.8247916666666666 Q_IPV,AJ_Vaccines,(6,_7),3_ - 1 N_AJ_Vaccines,(6,_7)_ >= 0
c54_1: -1.0955906499999998e7 W_AJ_Vaccines,(6,_7)_ - 1 Y_tilde_AJ_Vaccines,6_ + 1 N_AJ_Vaccines,(6,_7)_ >= -1.0955906499999998e7
c55_1: 1.9208333333333334 Q_IPV,AJ_Vaccines,(6,_8),1_ + 1.8824166666666666 Q_IPV,AJ_Vaccines,(6,_8),2_ + 1.8247916666666666 Q_IPV,AJ_Vaccines,(6,_8),3_ - 1 N_AJ_Vaccines,(6,_8)_ >= 0
c56_1: -1.6433859749999998e7 W_AJ_Vaccines,(6,_8)_ - 1 Y_tilde_AJ_Vaccines,6_ + 1 N_AJ_Vaccines,(6,_8)_ >= -1.6433859749999998e7
c57_1: 1.9208333333333334 Q_IPV,AJ_Vaccines,(6,_9),1_ + 1.8824166666666666 Q_IPV,AJ_Vaccines,(6,_9),2_ + 1.8247916666666666 Q_IPV,AJ_Vaccines,(6,_9),3_ - 1 N_AJ_Vaccines,(6,_9)_ >= 0
c58_1: -2.1911812999999996e7 W_AJ_Vaccines,(6,_9)_ - 1 Y_tilde_AJ_Vaccines,6_ + 1 N_AJ_Vaccines,(6,_9)_ >= -2.1911812999999996e7
c59_1: 1.9208333333333334 Q_IPV,AJ_Vaccines,(6,_10),1_ + 1.8824166666666666 Q_IPV,AJ_Vaccines,(6,_10),2_ + 1.8247916666666666 Q_IPV,AJ_Vaccines,(6,_10),3_ - 1 N_AJ_Vaccines,(6,_10)_ >= 0
c60_1: -2.7389766249999996e7 W_AJ_Vaccines,(6,_10)_ - 1 Y_tilde_AJ_Vaccines,6_ + 1 N_AJ_Vaccines,(6,_10)_ >= -2.7389766249999996e7
c61_1: 1.9208333333333334 Q_IPV,AJ_Vaccines,(7,_7),1_ + 1.8824166666666666 Q_IPV,AJ_Vaccines,(7,_7),2_ + 1.8247916666666666 Q_IPV,AJ_Vaccines,(7,_7),3_ - 1 N_AJ_Vaccines,(7,_7)_ >= 0
c62_1: -5.477953249999999e6 W_AJ_Vaccines,(7,_7)_ - 1 Y_tilde_AJ_Vaccines,7_ + 1 N_AJ_Vaccines,(7,_7)_ >= -5.477953249999999e6
c63_1: 1.9208333333333334 Q_IPV,AJ_Vaccines,(7,_8),1_ + 1.8824166666666666 Q_IPV,AJ_Vaccines,(7,_8),2_ + 1.8247916666666666 Q_IPV,AJ_Vaccines,(7,_8),3_ - 1 N_AJ_Vaccines,(7,_8)_ >= 0
c64_1: -1.0955906499999998e7 W_AJ_Vaccines,(7,_8)_ - 1 Y_tilde_AJ_Vaccines,7_ + 1 N_AJ_Vaccines,(7,_8)_ >= -1.0955906499999998e7
c65_1: 1.9208333333333334 Q_IPV,AJ_Vaccines,(7,_9),1_ + 1.8824166666666666 Q_IPV,AJ_Vaccines,(7,_9),2_ + 1.8247916666666666 Q_IPV,AJ_Vaccines,(7,_9),3_ - 1 N_AJ_Vaccines,(7,_9)_ >= 0
c66_1: -1.6433859749999998e7 W_AJ_Vaccines,(7,_9)_ - 1 Y_tilde_AJ_Vaccines,7_ + 1 N_AJ_Vaccines,(7,_9)_ >= -1.6433859749999998e7
c67_1: 1.9208333333333334 Q_IPV,AJ_Vaccines,(7,_10),1_ + 1.8824166666666666 Q_IPV,AJ_Vaccines,(7,_10),2_ + 1.8247916666666666 Q_IPV,AJ_Vaccines,(7,_10),3_ - 1 N_AJ_Vaccines,(7,_10)_ >= 0
c68_1: -2.1911812999999996e7 W_AJ_Vaccines,(7,_10)_ - 1 Y_tilde_AJ_Vaccines,7_ + 1 N_AJ_Vaccines,(7,_10)_ >= -2.1911812999999996e7
c69_1: 1.9208333333333334 Q_IPV,AJ_Vaccines,(8,_8),1_ + 1.8824166666666666 Q_IPV,AJ_Vaccines,(8,_8),2_ + 1.8247916666666666 Q_IPV,AJ_Vaccines,(8,_8),3_ - 1 N_AJ_Vaccines,(8,_8)_ >= 0
c70_1: -5.477953249999999e6 W_AJ_Vaccines,(8,_8)_ - 1 Y_tilde_AJ_Vaccines,8_ + 1 N_AJ_Vaccines,(8,_8)_ >= -5.477953249999999e6
c71_1: 1.9208333333333334 Q_IPV,AJ_Vaccines,(8,_9),1_ + 1.8824166666666666 Q_IPV,AJ_Vaccines,(8,_9),2_ + 1.8247916666666666 Q_IPV,AJ_Vaccines,(8,_9),3_ - 1 N_AJ_Vaccines,(8,_9)_ >= 0
c72_1: -1.0955906499999998e7 W_AJ_Vaccines,(8,_9)_ - 1 Y_tilde_AJ_Vaccines,8_ + 1 N_AJ_Vaccines,(8,_9)_ >= -1.0955906499999998e7
c73_1: 1.9208333333333334 Q_IPV,AJ_Vaccines,(8,_10),1_ + 1.8824166666666666 Q_IPV,AJ_Vaccines,(8,_10),2_ + 1.8247916666666666 Q_IPV,AJ_Vaccines,(8,_10),3_ - 1 N_AJ_Vaccines,(8,_10)_ >= 0
c74_1: -1.6433859749999998e7 W_AJ_Vaccines,(8,_10)_ - 1 Y_tilde_AJ_Vaccines,8_ + 1 N_AJ_Vaccines,(8,_10)_ >= -1.6433859749999998e7
c75_1: 1.9208333333333334 Q_IPV,AJ_Vaccines,(9,_9),1_ + 1.8824166666666666 Q_IPV,AJ_Vaccines,(9,_9),2_ + 1.8247916666666666 Q_IPV,AJ_Vaccines,(9,_9),3_ - 1 N_AJ_Vaccines,(9,_9)_ >= 0
c76_1: -5.477953249999999e6 W_AJ_Vaccines,(9,_9)_ - 1 Y_tilde_AJ_Vaccines,9_ + 1 N_AJ_Vaccines,(9,_9)_ >= -5.477953249999999e6
c77_1: 1.9208333333333334 Q_IPV,AJ_Vaccines,(9,_10),1_ + 1.8824166666666666 Q_IPV,AJ_Vaccines,(9,_10),2_ + 1.8247916666666666 Q_IPV,AJ_Vaccines,(9,_10),3_ - 1 N_AJ_Vaccines,(9,_10)_ >= 0
c78_1: -1.0955906499999998e7 W_AJ_Vaccines,(9,_10)_ - 1 Y_tilde_AJ_Vaccines,9_ + 1 N_AJ_Vaccines,(9,_10)_ >= -1.0955906499999998e7
c79_1: 1.9208333333333334 Q_IPV,AJ_Vaccines,(10,_10),1_ + 1.8824166666666666 Q_IPV,AJ_Vaccines,(10,_10),2_ + 1.8247916666666666 Q_IPV,AJ_Vaccines,(10,_10),3_ - 1 N_AJ_Vaccines,(10,_10)_ >= 0
c80_1: -5.477953249999999e6 W_AJ_Vaccines,(10,_10)_ - 1 Y_tilde_AJ_Vaccines,10_ + 1 N_AJ_Vaccines,(10,_10)_ >= -5.477953249999999e6
c81_1: 0.07700000000000001 Q_TT,BB_NCIPD,(1,_1),1_ + 0.07546000000000001 Q_TT,BB_NCIPD,(1,_1),2_ + 0.07315 Q_TT,BB_NCIPD,(1,_1),3_ + 0.16999999999999998 Q_DT,BB_NCIPD,(1,_1),1_ + 0.16659999999999997 Q_DT,BB_NCIPD,(1,_1),2_ + 0.16149999999999998 Q_DT,BB_NCIPD,(1,_1),3_ + 0.10092499999999999 Q_Td,BB_NCIPD,(1,_1),1_ + 0.09890649999999998 Q_Td,BB_NCIPD,(1,_1),2_ + 0.09587874999999998 Q_Td,BB_NCIPD,(1,_1),3_ - 1 N_BB_NCIPD,(1,_1)_ >= 0
c82_1: -2.478484341666667e6 W_BB_NCIPD,(1,_1)_ - 1 Y_tilde_BB_NCIPD,1_ + 1 N_BB_NCIPD,(1,_1)_ >= -2.478484341666667e6
c83_1: 0.07700000000000001 Q_TT,BB_NCIPD,(1,_2),1_ + 0.07546000000000001 Q_TT,BB_NCIPD,(1,_2),2_ + 0.07315 Q_TT,BB_NCIPD,(1,_2),3_ + 0.16999999999999998 Q_DT,BB_NCIPD,(1,_2),1_ + 0.16659999999999997 Q_DT,BB_NCIPD,(1,_2),2_ + 0.16149999999999998 Q_DT,BB_NCIPD,(1,_2),3_ + 0.10092499999999999 Q_Td,BB_NCIPD,(1,_2),1_ + 0.09890649999999998 Q_Td,BB_NCIPD,(1,_2),2_ + 0.09587874999999998 Q_Td,BB_NCIPD,(1,_2),3_ - 1 N_BB_NCIPD,(1,_2)_ >= 0
c84_1: -4.956968683333334e6 W_BB_NCIPD,(1,_2)_ - 1 Y_tilde_BB_NCIPD,1_ + 1 N_BB_NCIPD,(1,_2)_ >= -4.956968683333334e6
c85_1: 0.07700000000000001 Q_TT,BB_NCIPD,(1,_3),1_ + 0.07546000000000001 Q_TT,BB_NCIPD,(1,_3),2_ + 0.07315 Q_TT,BB_NCIPD,(1,_3),3_ + 0.16999999999999998 Q_DT,BB_NCIPD,(1,_3),1_ + 0.16659999999999997 Q_DT,BB_NCIPD,(1,_3),2_ + 0.16149999999999998 Q_DT,BB_NCIPD,(1,_3),3_ + 0.10092499999999999 Q_Td,BB_NCIPD,(1,_3),1_ + 0.09890649999999998 Q_Td,BB_NCIPD,(1,_3),2_ + 0.09587874999999998 Q_Td,BB_NCIPD,(1,_3),3_ - 1 N_BB_NCIPD,(1,_3)_ >= 0
c86_1: -7.435453025000001e6 W_BB_NCIPD,(1,_3)_ - 1 Y_tilde_BB_NCIPD,1_ + 1 N_BB_NCIPD,(1,_3)_ >= -7.435453025000001e6
c87_1: 0.07700000000000001 Q_TT,BB_NCIPD,(1,_4),1_ + 0.07546000000000001 Q_TT,BB_NCIPD,(1,_4),2_ + 0.07315 Q_TT,BB_NCIPD,(1,_4),3_ + 0.16999999999999998 Q_DT,BB_NCIPD,(1,_4),1_ + 0.16659999999999997 Q_DT,BB_NCIPD,(1,_4),2_ + 0.16149999999999998 Q_DT,BB_NCIPD,(1,_4),3_ + 0.10092499999999999 Q_Td,BB_NCIPD,(1,_4),1_ + 0.09890649999999998 Q_Td,BB_NCIPD,(1,_4),2_ + 0.09587874999999998 Q_Td,BB_NCIPD,(1,_4),3_ - 1 N_BB_NCIPD,(1,_4)_ >= 0
c88_1: -9.913937366666667e6 W_BB_NCIPD,(1,_4)_ - 1 Y_tilde_BB_NCIPD,1_ + 1 N_BB_NCIPD,(1,_4)_ >= -9.913937366666667e6
c89_1: 0.07700000000000001 Q_TT,BB_NCIPD,(1,_5),1_ + 0.07546000000000001 Q_TT,BB_NCIPD,(1,_5),2_ + 0.07315 Q_TT,BB_NCIPD,(1,_5),3_ + 0.16999999999999998 Q_DT,BB_NCIPD,(1,_5),1_ + 0.16659999999999997 Q_DT,BB_NCIPD,(1,_5),2_ + 0.16149999999999998 Q_DT,BB_NCIPD,(1,_5),3_ + 0.10092499999999999 Q_Td,BB_NCIPD,(1,_5),1_ + 0.09890649999999998 Q_Td,BB_NCIPD,(1,_5),2_ + 0.09587874999999998 Q_Td,BB_NCIPD,(1,_5),3_ - 1 N_BB_NCIPD,(1,_5)_ >= 0
c90_1: -1.2392421708333332e7 W_BB_NCIPD,(1,_5)_ - 1 Y_tilde_BB_NCIPD,1_ + 1 N_BB_NCIPD,(1,_5)_ >= -1.2392421708333332e7
c91_1: 0.07762500000000001 Q_TT,BB_NCIPD,(2,_2),1_ + 0.07607250000000002 Q_TT,BB_NCIPD,(2,_2),2_ + 0.07374375000000001 Q_TT,BB_NCIPD,(2,_2),3_ + 0.16999999999999998 Q_DT,BB_NCIPD,(2,_2),1_ + 0.16659999999999997 Q_DT,BB_NCIPD,(2,_2),2_ + 0.16149999999999998 Q_DT,BB_NCIPD,(2,_2),3_ + 0.10217499999999999 Q_Td,BB_NCIPD,(2,_2),1_ + 0.10013149999999998 Q_Td,BB_NCIPD,(2,_2),2_ + 0.09706624999999998 Q_Td,BB_NCIPD,(2,_2),3_ - 1 N_BB_NCIPD,(2,_2)_ >= 0
c92_1: -2.478484341666667e6 W_BB_NCIPD,(2,_2)_ - 1 Y_tilde_BB_NCIPD,2_ + 1 N_BB_NCIPD,(2,_2)_ >= -2.478484341666667e6
c93_1: 0.07762500000000001 Q_TT,BB_NCIPD,(2,_3),1_ + 0.07607250000000002 Q_TT,BB_NCIPD,(2,_3),2_ + 0.07374375000000001 Q_TT,BB_NCIPD,(2,_3),3_ + 0.16999999999999998 Q_DT,BB_NCIPD,(2,_3),1_ + 0.16659999999999997 Q_DT,BB_NCIPD,(2,_3),2_ + 0.16149999999999998 Q_DT,BB_NCIPD,(2,_3),3_ + 0.10217499999999999 Q_Td,BB_NCIPD,(2,_3),1_ + 0.10013149999999998 Q_Td,BB_NCIPD,(2,_3),2_ + 0.09706624999999998 Q_Td,BB_NCIPD,(2,_3),3_ - 1 N_BB_NCIPD,(2,_3)_ >= 0
c94_1: -4.956968683333334e6 W_BB_NCIPD,(2,_3)_ - 1 Y_tilde_BB_NCIPD,2_ + 1 N_BB_NCIPD,(2,_3)_ >= -4.956968683333334e6
c95_1: 0.07762500000000001 Q_TT,BB_NCIPD,(2,_4),1_ + 0.07607250000000002 Q_TT,BB_NCIPD,(2,_4),2_ + 0.07374375000000001 Q_TT,BB_NCIPD,(2,_4),3_ + 0.16999999999999998 Q_DT,BB_NCIPD,(2,_4),1_ + 0.16659999999999997 Q_DT,BB_NCIPD,(2,_4),2_ + 0.16149999999999998 Q_DT,BB_NCIPD,(2,_4),3_ + 0.10217499999999999 Q_Td,BB_NCIPD,(2,_4),1_ + 0.10013149999999998 Q_Td,BB_NCIPD,(2,_4),2_ + 0.09706624999999998 Q_Td,BB_NCIPD,(2,_4),3_ - 1 N_BB_NCIPD,(2,_4)_ >= 0
c96_1: -7.435453025000001e6 W_BB_NCIPD,(2,_4)_ - 1 Y_tilde_BB_NCIPD,2_ + 1 N_BB_NCIPD,(2,_4)_ >= -7.435453025000001e6
c97_1: 0.07762500000000001 Q_TT,BB_NCIPD,(2,_5),1_ + 0.07607250000000002 Q_TT,BB_NCIPD,(2,_5),2_ + 0.07374375000000001 Q_TT,BB_NCIPD,(2,_5),3_ + 0.16999999999999998 Q_DT,BB_NCIPD,(2,_5),1_ + 0.16659999999999997 Q_DT,BB_NCIPD,(2,_5),2_ + 0.16149999999999998 Q_DT,BB_NCIPD,(2,_5),3_ + 0.10217499999999999 Q_Td,BB_NCIPD,(2,_5),1_ + 0.10013149999999998 Q_Td,BB_NCIPD,(2,_5),2_ + 0.09706624999999998 Q_Td,BB_NCIPD,(2,_5),3_ - 1 N_BB_NCIPD,(2,_5)_ >= 0
c98_1: -9.913937366666667e6 W_BB_NCIPD,(2,_5)_ - 1 Y_tilde_BB_NCIPD,2_ + 1 N_BB_NCIPD,(2,_5)_ >= -9.913937366666667e6
c99_1: 0.07762500000000001 Q_TT,BB_NCIPD,(2,_6),1_ + 0.07607250000000002 Q_TT,BB_NCIPD,(2,_6),2_ + 0.07374375000000001 Q_TT,BB_NCIPD,(2,_6),3_ + 0.16999999999999998 Q_DT,BB_NCIPD,(2,_6),1_ + 0.16659999999999997 Q_DT,BB_NCIPD,(2,_6),2_ + 0.16149999999999998 Q_DT,BB_NCIPD,(2,_6),3_ + 0.10217499999999999 Q_Td,BB_NCIPD,(2,_6),1_ + 0.10013149999999998 Q_Td,BB_NCIPD,(2,_6),2_ + 0.09706624999999998 Q_Td,BB_NCIPD,(2,_6),3_ - 1 N_BB_NCIPD,(2,_6)_ >= 0
c100_1: -1.2392421708333332e7 W_BB_NCIPD,(2,_6)_ - 1 Y_tilde_BB_NCIPD,2_ + 1 N_BB_NCIPD,(2,_6)_ >= -1.2392421708333332e7
c101_1: 0.07743749999999999 Q_TT,BB_NCIPD,(3,_3),1_ + 0.07588874999999999 Q_TT,BB_NCIPD,(3,_3),2_ + 0.073565625 Q_TT,BB_NCIPD,(3,_3),3_ + 0.16999999999999998 Q_DT,BB_NCIPD,(3,_3),1_ + 0.16659999999999997 Q_DT,BB_NCIPD,(3,_3),2_ + 0.16149999999999998 Q_DT,BB_NCIPD,(3,_3),3_ + 0.11737500000000001 Q_Td,BB_NCIPD,(3,_3),1_ + 0.1150275 Q_Td,BB_NCIPD,(3,_3),2_ + 0.11150625 Q_Td,BB_NCIPD,(3,_3),3_ - 1 N_BB_NCIPD,(3,_3)_ >= 0
c102_1: -2.478484341666667e6 W_BB_NCIPD,(3,_3)_ - 1 Y_tilde_BB_NCIPD,3_ + 1 N_BB_NCIPD,(3,_3)_ >= -2.478484341666667e6
c103_1: 0.07743749999999999 Q_TT,BB_NCIPD,(3,_4),1_ + 0.07588874999999999 Q_TT,BB_NCIPD,(3,_4),2_ + 0.073565625 Q_TT,BB_NCIPD,(3,_4),3_ + 0.16999999999999998 Q_DT,BB_NCIPD,(3,_4),1_ + 0.16659999999999997 Q_DT,BB_NCIPD,(3,_4),2_ + 0.16149999999999998 Q_DT,BB_NCIPD,(3,_4),3_ + 0.11737500000000001 Q_Td,BB_NCIPD,(3,_4),1_ + 0.1150275 Q_Td,BB_NCIPD,(3,_4),2_ + 0.11150625 Q_Td,BB_NCIPD,(3,_4),3_ - 1 N_BB_NCIPD,(3,_4)_ >= 0
c104_1: -4.956968683333334e6 W_BB_NCIPD,(3,_4)_ - 1 Y_tilde_BB_NCIPD,3_ + 1 N_BB_NCIPD,(3,_4)_ >= -4.956968683333334e6
c105_1: 0.07743749999999999 Q_TT,BB_NCIPD,(3,_5),1_ + 0.07588874999999999 Q_TT,BB_NCIPD,(3,_5),2_ + 0.073565625 Q_TT,BB_NCIPD,(3,_5),3_ + 0.16999999999999998 Q_DT,BB_NCIPD,(3,_5),1_ + 0.16659999999999997 Q_DT,BB_NCIPD,(3,_5),2_ + 0.16149999999999998 Q_DT,BB_NCIPD,(3,_5),3_ + 0.11737500000000001 Q_Td,BB_NCIPD,(3,_5),1_ + 0.1150275 Q_Td,BB_NCIPD,(3,_5),2_ + 0.11150625 Q_Td,BB_NCIPD,(3,_5),3_ - 1 N_BB_NCIPD,(3,_5)_ >= 0
c106_1: -7.435453025000001e6 W_BB_NCIPD,(3,_5)_ - 1 Y_tilde_BB_NCIPD,3_ + 1 N_BB_NCIPD,(3,_5)_ >= -7.435453025000001e6
c107_1: 0.07743749999999999 Q_TT,BB_NCIPD,(3,_6),1_ + 0.07588874999999999 Q_TT,BB_NCIPD,(3,_6),2_ + 0.073565625 Q_TT,BB_NCIPD,(3,_6),3_ + 0.16999999999999998 Q_DT,BB_NCIPD,(3,_6),1_ + 0.16659999999999997 Q_DT,BB_NCIPD,(3,_6),2_ + 0.16149999999999998 Q_DT,BB_NCIPD,(3,_6),3_ + 0.11737500000000001 Q_Td,BB_NCIPD,(3,_6),1_ + 0.1150275 Q_Td,BB_NCIPD,(3,_6),2_ + 0.11150625 Q_Td,BB_NCIPD,(3,_6),3_ - 1 N_BB_NCIPD,(3,_6)_ >= 0
c108_1: -9.913937366666667e6 W_BB_NCIPD,(3,_6)_ - 1 Y_tilde_BB_NCIPD,3_ + 1 N_BB_NCIPD,(3,_6)_ >= -9.913937366666667e6
c109_1: 0.07743749999999999 Q_TT,BB_NCIPD,(3,_7),1_ + 0.07588874999999999 Q_TT,BB_NCIPD,(3,_7),2_ + 0.073565625 Q_TT,BB_NCIPD,(3,_7),3_ + 0.16999999999999998 Q_DT,BB_NCIPD,(3,_7),1_ + 0.16659999999999997 Q_DT,BB_NCIPD,(3,_7),2_ + 0.16149999999999998 Q_DT,BB_NCIPD,(3,_7),3_ + 0.11737500000000001 Q_Td,BB_NCIPD,(3,_7),1_ + 0.1150275 Q_Td,BB_NCIPD,(3,_7),2_ + 0.11150625 Q_Td,BB_NCIPD,(3,_7),3_ - 1 N_BB_NCIPD,(3,_7)_ >= 0
c110_1: -1.2392421708333332e7 W_BB_NCIPD,(3,_7)_ - 1 Y_tilde_BB_NCIPD,3_ + 1 N_BB_NCIPD,(3,_7)_ >= -1.2392421708333332e7
c111_1: 0.08521875 Q_TT,BB_NCIPD,(4,_4),1_ + 0.08351437499999999 Q_TT,BB_NCIPD,(4,_4),2_ + 0.08095781249999999 Q_TT,BB_NCIPD,(4,_4),3_ + 0.16999999999999998 Q_DT,BB_NCIPD,(4,_4),1_ + 0.16659999999999997 Q_DT,BB_NCIPD,(4,_4),2_ + 0.16149999999999998 Q_DT,BB_NCIPD,(4,_4),3_ + 0.1257625 Q_Td,BB_NCIPD,(4,_4),1_ + 0.12324725 Q_Td,BB_NCIPD,(4,_4),2_ + 0.119474375 Q_Td,BB_NCIPD,(4,_4),3_ - 1 N_BB_NCIPD,(4,_4)_ >= 0
c112_1: -2.478484341666667e6 W_BB_NCIPD,(4,_4)_ - 1 Y_tilde_BB_NCIPD,4_ + 1 N_BB_NCIPD,(4,_4)_ >= -2.478484341666667e6
c113_1: 0.08521875 Q_TT,BB_NCIPD,(4,_5),1_ + 0.08351437499999999 Q_TT,BB_NCIPD,(4,_5),2_ + 0.08095781249999999 Q_TT,BB_NCIPD,(4,_5),3_ + 0.16999999999999998 Q_DT,BB_NCIPD,(4,_5),1_ + 0.16659999999999997 Q_DT,BB_NCIPD,(4,_5),2_ + 0.16149999999999998 Q_DT,BB_NCIPD,(4,_5),3_ + 0.1257625 Q_Td,BB_NCIPD,(4,_5),1_ + 0.12324725 Q_Td,BB_NCIPD,(4,_5),2_ + 0.119474375 Q_Td,BB_NCIPD,(4,_5),3_ - 1 N_BB_NCIPD,(4,_5)_ >= 0
c114_1: -4.956968683333334e6 W_BB_NCIPD,(4,_5)_ - 1 Y_tilde_BB_NCIPD,4_ + 1 N_BB_NCIPD,(4,_5)_ >= -4.956968683333334e6
c115_1: 0.08521875 Q_TT,BB_NCIPD,(4,_6),1_ + 0.08351437499999999 Q_TT,BB_NCIPD,(4,_6),2_ + 0.08095781249999999 Q_TT,BB_NCIPD,(4,_6),3_ + 0.16999999999999998 Q_DT,BB_NCIPD,(4,_6),1_ + 0.16659999999999997 Q_DT,BB_NCIPD,(4,_6),2_ + 0.16149999999999998 Q_DT,BB_NCIPD,(4,_6),3_ + 0.1257625 Q_Td,BB_NCIPD,(4,_6),1_ + 0.12324725 Q_Td,BB_NCIPD,(4,_6),2_ + 0.119474375 Q_Td,BB_NCIPD,(4,_6),3_ - 1 N_BB_NCIPD,(4,_6)_ >= 0
c116_1: -7.435453025000001e6 W_BB_NCIPD,(4,_6)_ - 1 Y_tilde_BB_NCIPD,4_ + 1 N_BB_NCIPD,(4,_6)_ >= -7.435453025000001e6
c117_1: 0.08521875 Q_TT,BB_NCIPD,(4,_7),1_ + 0.08351437499999999 Q_TT,BB_NCIPD,(4,_7),2_ + 0.08095781249999999 Q_TT,BB_NCIPD,(4,_7),3_ + 0.16999999999999998 Q_DT,BB_NCIPD,(4,_7),1_ + 0.16659999999999997 Q_DT,BB_NCIPD,(4,_7),2_ + 0.16149999999999998 Q_DT,BB_NCIPD,(4,_7),3_ + 0.1257625 Q_Td,BB_NCIPD,(4,_7),1_ + 0.12324725 Q_Td,BB_NCIPD,(4,_7),2_ + 0.119474375 Q_Td,BB_NCIPD,(4,_7),3_ - 1 N_BB_NCIPD,(4,_7)_ >= 0
c118_1: -9.913937366666667e6 W_BB_NCIPD,(4,_7)_ - 1 Y_tilde_BB_NCIPD,4_ + 1 N_BB_NCIPD,(4,_7)_ >= -9.913937366666667e6
c119_1: 0.08521875 Q_TT,BB_NCIPD,(4,_8),1_ + 0.08351437499999999 Q_TT,BB_NCIPD,(4,_8),2_ + 0.08095781249999999 Q_TT,BB_NCIPD,(4,_8),3_ + 0.16999999999999998 Q_DT,BB_NCIPD,(4,_8),1_ + 0.16659999999999997 Q_DT,BB_NCIPD,(4,_8),2_ + 0.16149999999999998 Q_DT,BB_NCIPD,(4,_8),3_ + 0.1257625 Q_Td,BB_NCIPD,(4,_8),1_ + 0.12324725 Q_Td,BB_NCIPD,(4,_8),2_ + 0.119474375 Q_Td,BB_NCIPD,(4,_8),3_ - 1 N_BB_NCIPD,(4,_8)_ >= 0
c120_1: -1.2392421708333332e7 W_BB_NCIPD,(4,_8)_ - 1 Y_tilde_BB_NCIPD,4_ + 1 N_BB_NCIPD,(4,_8)_ >= -1.2392421708333332e7
c121_1: 0.085140625 Q_TT,BB_NCIPD,(5,_5),1_ + 0.0834378125 Q_TT,BB_NCIPD,(5,_5),2_ + 0.08088359375 Q_TT,BB_NCIPD,(5,_5),3_ + 0.16999999999999998 Q_DT,BB_NCIPD,(5,_5),1_ + 0.16659999999999997 Q_DT,BB_NCIPD,(5,_5),2_ + 0.16149999999999998 Q_DT,BB_NCIPD,(5,_5),3_ + 0.1287 Q_Td,BB_NCIPD,(5,_5),1_ + 0.12612600000000002 Q_Td,BB_NCIPD,(5,_5),2_ + 0.122265 Q_Td,BB_NCIPD,(5,_5),3_ - 1 N_BB_NCIPD,(5,_5)_ >= 0
c122_1: -2.478484341666667e6 W_BB_NCIPD,(5,_5)_ - 1 Y_tilde_BB_NCIPD,5_ + 1 N_BB_NCIPD,(5,_5)_ >= -2.478484341666667e6
c123_1: 0.085140625 Q_TT,BB_NCIPD,(5,_6),1_ + 0.0834378125 Q_TT,BB_NCIPD,(5,_6),2_ + 0.08088359375 Q_TT,BB_NCIPD,(5,_6),3_ + 0.16999999999999998 Q_DT,BB_NCIPD,(5,_6),1_ + 0.16659999999999997 Q_DT,BB_NCIPD,(5,_6),2_ + 0.16149999999999998 Q_DT,BB_NCIPD,(5,_6),3_ + 0.1287 Q_Td,BB_NCIPD,(5,_6),1_ + 0.12612600000000002 Q_Td,BB_NCIPD,(5,_6),2_ + 0.122265 Q_Td,BB_NCIPD,(5,_6),3_ - 1 N_BB_NCIPD,(5,_6)_ >= 0
c124_1: -4.956968683333334e6 W_BB_NCIPD,(5,_6)_ - 1 Y_tilde_BB_NCIPD,5_ + 1 N_BB_NCIPD,(5,_6)_ >= -4.956968683333334e6
c125_1: 0.085140625 Q_TT,BB_NCIPD,(5,_7),1_ + 0.0834378125 Q_TT,BB_NCIPD,(5,_7),2_ + 0.08088359375 Q_TT,BB_NCIPD,(5,_7),3_ + 0.16999999999999998 Q_DT,BB_NCIPD,(5,_7),1_ + 0.16659999999999997 Q_DT,BB_NCIPD,(5,_7),2_ + 0.16149999999999998 Q_DT,BB_NCIPD,(5,_7),3_ + 0.1287 Q_Td,BB_NCIPD,(5,_7),1_ + 0.12612600000000002 Q_Td,BB_NCIPD,(5,_7),2_ + 0.122265 Q_Td,BB_NCIPD,(5,_7),3_ - 1 N_BB_NCIPD,(5,_7)_ >= 0
c126_1: -7.435453025000001e6 W_BB_NCIPD,(5,_7)_ - 1 Y_tilde_BB_NCIPD,5_ + 1 N_BB_NCIPD,(5,_7)_ >= -7.435453025000001e6
c127_1: 0.085140625 Q_TT,BB_NCIPD,(5,_8),1_ + 0.0834378125 Q_TT,BB_NCIPD,(5,_8),2_ + 0.08088359375 Q_TT,BB_NCIPD,(5,_8),3_ + 0.16999999999999998 Q_DT,BB_NCIPD,(5,_8),1_ + 0.16659999999999997 Q_DT,BB_NCIPD,(5,_8),2_ + 0.16149999999999998 Q_DT,BB_NCIPD,(5,_8),3_ + 0.1287 Q_Td,BB_NCIPD,(5,_8),1_ + 0.12612600000000002 Q_Td,BB_NCIPD,(5,_8),2_ + 0.122265 Q_Td,BB_NCIPD,(5,_8),3_ - 1 N_BB_NCIPD,(5,_8)_ >= 0
c128_1: -9.913937366666667e6 W_BB_NCIPD,(5,_8)_ - 1 Y_tilde_BB_NCIPD,5_ + 1 N_BB_NCIPD,(5,_8)_ >= -9.913937366666667e6
c129_1: 0.085140625 Q_TT,BB_NCIPD,(5,_9),1_ + 0.0834378125 Q_TT,BB_NCIPD,(5,_9),2_ + 0.08088359375 Q_TT,BB_NCIPD,(5,_9),3_ + 0.16999999999999998 Q_DT,BB_NCIPD,(5,_9),1_ + 0.16659999999999997 Q_DT,BB_NCIPD,(5,_9),2_ + 0.16149999999999998 Q_DT,BB_NCIPD,(5,_9),3_ + 0.1287 Q_Td,BB_NCIPD,(5,_9),1_ + 0.12612600000000002 Q_Td,BB_NCIPD,(5,_9),2_ + 0.122265 Q_Td,BB_NCIPD,(5,_9),3_ - 1 N_BB_NCIPD,(5,_9)_ >= 0
c130_1: -1.2392421708333332e7 W_BB_NCIPD,(5,_9)_ - 1 Y_tilde_BB_NCIPD,5_ + 1 N_BB_NCIPD,(5,_9)_ >= -1.2392421708333332e7
c131_1: 0.0851796875 Q_TT,BB_NCIPD,(6,_6),1_ + 0.08347609375000001 Q_TT,BB_NCIPD,(6,_6),2_ + 0.080920703125 Q_TT,BB_NCIPD,(6,_6),3_ + 0.16999999999999998 Q_DT,BB_NCIPD,(6,_6),1_ + 0.16659999999999997 Q_DT,BB_NCIPD,(6,_6),2_ + 0.16149999999999998 Q_DT,BB_NCIPD,(6,_6),3_ + 0.124659375 Q_Td,BB_NCIPD,(6,_6),1_ + 0.1221661875 Q_Td,BB_NCIPD,(6,_6),2_ + 0.11842640624999999 Q_Td,BB_NCIPD,(6,_6),3_ - 1 N_BB_NCIPD,(6,_6)_ >= 0
c132_1: -2.478484341666667e6 W_BB_NCIPD,(6,_6)_ - 1 Y_tilde_BB_NCIPD,6_ + 1 N_BB_NCIPD,(6,_6)_ >= -2.478484341666667e6
c133_1: 0.0851796875 Q_TT,BB_NCIPD,(6,_7),1_ + 0.08347609375000001 Q_TT,BB_NCIPD,(6,_7),2_ + 0.080920703125 Q_TT,BB_NCIPD,(6,_7),3_ + 0.16999999999999998 Q_DT,BB_NCIPD,(6,_7),1_ + 0.16659999999999997 Q_DT,BB_NCIPD,(6,_7),2_ + 0.16149999999999998 Q_DT,BB_NCIPD,(6,_7),3_ + 0.124659375 Q_Td,BB_NCIPD,(6,_7),1_ + 0.1221661875 Q_Td,BB_NCIPD,(6,_7),2_ + 0.11842640624999999 Q_Td,BB_NCIPD,(6,_7),3_ - 1 N_BB_NCIPD,(6,_7)_ >= 0
c134_1: -4.956968683333334e6 W_BB_NCIPD,(6,_7)_ - 1 Y_tilde_BB_NCIPD,6_ + 1 N_BB_NCIPD,(6,_7)_ >= -4.956968683333334e6
c135_1: 0.0851796875 Q_TT,BB_NCIPD,(6,_8),1_ + 0.08347609375000001 Q_TT,BB_NCIPD,(6,_8),2_ + 0.080920703125 Q_TT,BB_NCIPD,(6,_8),3_ + 0.16999999999999998 Q_DT,BB_NCIPD,(6,_8),1_ + 0.16659999999999997 Q_DT,BB_NCIPD,(6,_8),2_ + 0.16149999999999998 Q_DT,BB_NCIPD,(6,_8),3_ + 0.124659375 Q_Td,BB_NCIPD,(6,_8),1_ + 0.1221661875 Q_Td,BB_NCIPD,(6,_8),2_ + 0.11842640624999999 Q_Td,BB_NCIPD,(6,_8),3_ - 1 N_BB_NCIPD,(6,_8)_ >= 0
c136_1: -7.435453025000001e6 W_BB_NCIPD,(6,_8)_ - 1 Y_tilde_BB_NCIPD,6_ + 1 N_BB_NCIPD,(6,_8)_ >= -7.435453025000001e6
c137_1: 0.0851796875 Q_TT,BB_NCIPD,(6,_9),1_ + 0.08347609375000001 Q_TT,BB_NCIPD,(6,_9),2_ + 0.080920703125 Q_TT,BB_NCIPD,(6,_9),3_ + 0.16999999999999998 Q_DT,BB_NCIPD,(6,_9),1_ + 0.16659999999999997 Q_DT,BB_NCIPD,(6,_9),2_ + 0.16149999999999998 Q_DT,BB_NCIPD,(6,_9),3_ + 0.124659375 Q_Td,BB_NCIPD,(6,_9),1_ + 0.1221661875 Q_Td,BB_NCIPD,(6,_9),2_ + 0.11842640624999999 Q_Td,BB_NCIPD,(6,_9),3_ - 1 N_BB_NCIPD,(6,_9)_ >= 0
c138_1: -9.913937366666667e6 W_BB_NCIPD,(6,_9)_ - 1 Y_tilde_BB_NCIPD,6_ + 1 N_BB_NCIPD,(6,_9)_ >= -9.913937366666667e6
c139_1: 0.0851796875 Q_TT,BB_NCIPD,(6,_10),1_ + 0.08347609375000001 Q_TT,BB_NCIPD,(6,_10),2_ + 0.080920703125 Q_TT,BB_NCIPD,(6,_10),3_ + 0.16999999999999998 Q_DT,BB_NCIPD,(6,_10),1_ + 0.16659999999999997 Q_DT,BB_NCIPD,(6,_10),2_ + 0.16149999999999998 Q_DT,BB_NCIPD,(6,_10),3_ + 0.124659375 Q_Td,BB_NCIPD,(6,_10),1_ + 0.1221661875 Q_Td,BB_NCIPD,(6,_10),2_ + 0.11842640624999999 Q_Td,BB_NCIPD,(6,_10),3_ - 1 N_BB_NCIPD,(6,_10)_ >= 0
c140_1: -1.2392421708333332e7 W_BB_NCIPD,(6,_10)_ - 1 Y_tilde_BB_NCIPD,6_ + 1 N_BB_NCIPD,(6,_10)_ >= -1.2392421708333332e7
c141_1: 0.08669765624999999 Q_TT,BB_NCIPD,(7,_7),1_ + 0.08496370312499998 Q_TT,BB_NCIPD,(7,_7),2_ + 0.08236277343749998 Q_TT,BB_NCIPD,(7,_7),3_ + 0.16999999999999998 Q_DT,BB_NCIPD,(7,_7),1_ + 0.16659999999999997 Q_DT,BB_NCIPD,(7,_7),2_ + 0.16149999999999998 Q_DT,BB_NCIPD,(7,_7),3_ + 0.1292953125 Q_Td,BB_NCIPD,(7,_7),1_ + 0.12670940625000002 Q_Td,BB_NCIPD,(7,_7),2_ + 0.122830546875 Q_Td,BB_NCIPD,(7,_7),3_ - 1 N_BB_NCIPD,(7,_7)_ >= 0
c142_1: -2.478484341666667e6 W_BB_NCIPD,(7,_7)_ - 1 Y_tilde_BB_NCIPD,7_ + 1 N_BB_NCIPD,(7,_7)_ >= -2.478484341666667e6
c143_1: 0.08669765624999999 Q_TT,BB_NCIPD,(7,_8),1_ + 0.08496370312499998 Q_TT,BB_NCIPD,(7,_8),2_ + 0.08236277343749998 Q_TT,BB_NCIPD,(7,_8),3_ + 0.16999999999999998 Q_DT,BB_NCIPD,(7,_8),1_ + 0.16659999999999997 Q_DT,BB_NCIPD,(7,_8),2_ + 0.16149999999999998 Q_DT,BB_NCIPD,(7,_8),3_ + 0.1292953125 Q_Td,BB_NCIPD,(7,_8),1_ + 0.12670940625000002 Q_Td,BB_NCIPD,(7,_8),2_ + 0.122830546875 Q_Td,BB_NCIPD,(7,_8),3_ - 1 N_BB_NCIPD,(7,_8)_ >= 0
c144_1: -4.956968683333334e6 W_BB_NCIPD,(7,_8)_ - 1 Y_tilde_BB_NCIPD,7_ + 1 N_BB_NCIPD,(7,_8)_ >= -4.956968683333334e6
c145_1: 0.08669765624999999 Q_TT,BB_NCIPD,(7,_9),1_ + 0.08496370312499998 Q_TT,BB_NCIPD,(7,_9),2_ + 0.08236277343749998 Q_TT,BB_NCIPD,(7,_9),3_ + 0.16999999999999998 Q_DT,BB_NCIPD,(7,_9),1_ + 0.16659999999999997 Q_DT,BB_NCIPD,(7,_9),2_ + 0.16149999999999998 Q_DT,BB_NCIPD,(7,_9),3_ + 0.1292953125 Q_Td,BB_NCIPD,(7,_9),1_ + 0.12670940625000002 Q_Td,BB_NCIPD,(7,_9),2_ + 0.122830546875 Q_Td,BB_NCIPD,(7,_9),3_ - 1 N_BB_NCIPD,(7,_9)_ >= 0
c146_1: -7.435453025000001e6 W_BB_NCIPD,(7,_9)_ - 1 Y_tilde_BB_NCIPD,7_ + 1 N_BB_NCIPD,(7,_9)_ >= -7.435453025000001e6
c147_1: 0.08669765624999999 Q_TT,BB_NCIPD,(7,_10),1_ + 0.08496370312499998 Q_TT,BB_NCIPD,(7,_10),2_ + 0.08236277343749998 Q_TT,BB_NCIPD,(7,_10),3_ + 0.16999999999999998 Q_DT,BB_NCIPD,(7,_10),1_ + 0.16659999999999997 Q_DT,BB_NCIPD,(7,_10),2_ + 0.16149999999999998 Q_DT,BB_NCIPD,(7,_10),3_ + 0.1292953125 Q_Td,BB_NCIPD,(7,_10),1_ + 0.12670940625000002 Q_Td,BB_NCIPD,(7,_10),2_ + 0.122830546875 Q_Td,BB_NCIPD,(7,_10),3_ - 1 N_BB_NCIPD,(7,_10)_ >= 0
c148_1: -9.913937366666667e6 W_BB_NCIPD,(7,_10)_ - 1 Y_tilde_BB_NCIPD,7_ + 1 N_BB_NCIPD,(7,_10)_ >= -9.913937366666667e6
c149_1: 0.086707421875 Q_TT,BB_NCIPD,(8,_8),1_ + 0.0849732734375 Q_TT,BB_NCIPD,(8,_8),2_ + 0.08237205078125 Q_TT,BB_NCIPD,(8,_8),3_ + 0.16999999999999998 Q_DT,BB_NCIPD,(8,_8),1_ + 0.16659999999999997 Q_DT,BB_NCIPD,(8,_8),2_ + 0.16149999999999998 Q_DT,BB_NCIPD,(8,_8),3_ + 0.12897734375 Q_Td,BB_NCIPD,(8,_8),1_ + 0.126397796875 Q_Td,BB_NCIPD,(8,_8),2_ + 0.12252847656249999 Q_Td,BB_NCIPD,(8,_8),3_ - 1 N_BB_NCIPD,(8,_8)_ >= 0
c150_1: -2.478484341666667e6 W_BB_NCIPD,(8,_8)_ - 1 Y_tilde_BB_NCIPD,8_ + 1 N_BB_NCIPD,(8,_8)_ >= -2.478484341666667e6
c151_1: 0.086707421875 Q_TT,BB_NCIPD,(8,_9),1_ + 0.0849732734375 Q_TT,BB_NCIPD,(8,_9),2_ + 0.08237205078125 Q_TT,BB_NCIPD,(8,_9),3_ + 0.16999999999999998 Q_DT,BB_NCIPD,(8,_9),1_ + 0.16659999999999997 Q_DT,BB_NCIPD,(8,_9),2_ + 0.16149999999999998 Q_DT,BB_NCIPD,(8,_9),3_ + 0.12897734375 Q_Td,BB_NCIPD,(8,_9),1_ + 0.126397796875 Q_Td,BB_NCIPD,(8,_9),2_ + 0.12252847656249999 Q_Td,BB_NCIPD,(8,_9),3_ - 1 N_BB_NCIPD,(8,_9)_ >= 0
c152_1: -4.956968683333334e6 W_BB_NCIPD,(8,_9)_ - 1 Y_tilde_BB_NCIPD,8_ + 1 N_BB_NCIPD,(8,_9)_ >= -4.956968683333334e6
c153_1: 0.086707421875 Q_TT,BB_NCIPD,(8,_10),1_ + 0.0849732734375 Q_TT,BB_NCIPD,(8,_10),2_ + 0.08237205078125 Q_TT,BB_NCIPD,(8,_10),3_ + 0.16999999999999998 Q_DT,BB_NCIPD,(8,_10),1_ + 0.16659999999999997 Q_DT,BB_NCIPD,(8,_10),2_ + 0.16149999999999998 Q_DT,BB_NCIPD,(8,_10),3_ + 0.12897734375 Q_Td,BB_NCIPD,(8,_10),1_ + 0.126397796875 Q_Td,BB_NCIPD,(8,_10),2_ + 0.12252847656249999 Q_Td,BB_NCIPD,(8,_10),3_ - 1 N_BB_NCIPD,(8,_10)_ >= 0
c154_1: -7.435453025000001e6 W_BB_NCIPD,(8,_10)_ - 1 Y_tilde_BB_NCIPD,8_ + 1 N_BB_NCIPD,(8,_10)_ >= -7.435453025000001e6
c155_1: 0.0867025390625 Q_TT,BB_NCIPD,(9,_9),1_ + 0.08496848828125 Q_TT,BB_NCIPD,(9,_9),2_ + 0.082367412109375 Q_TT,BB_NCIPD,(9,_9),3_ + 0.16999999999999998 Q_DT,BB_NCIPD,(9,_9),1_ + 0.16659999999999997 Q_DT,BB_NCIPD,(9,_9),2_ + 0.16149999999999998 Q_DT,BB_NCIPD,(9,_9),3_ + 0.129136328125 Q_Td,BB_NCIPD,(9,_9),1_ + 0.1265536015625 Q_Td,BB_NCIPD,(9,_9),2_ + 0.12267951171875 Q_Td,BB_NCIPD,(9,_9),3_ - 1 N_BB_NCIPD,(9,_9)_ >= 0
c156_1: -2.478484341666667e6 W_BB_NCIPD,(9,_9)_ - 1 Y_tilde_BB_NCIPD,9_ + 1 N_BB_NCIPD,(9,_9)_ >= -2.478484341666667e6
c157_1: 0.0867025390625 Q_TT,BB_NCIPD,(9,_10),1_ + 0.08496848828125 Q_TT,BB_NCIPD,(9,_10),2_ + 0.082367412109375 Q_TT,BB_NCIPD,(9,_10),3_ + 0.16999999999999998 Q_DT,BB_NCIPD,(9,_10),1_ + 0.16659999999999997 Q_DT,BB_NCIPD,(9,_10),2_ + 0.16149999999999998 Q_DT,BB_NCIPD,(9,_10),3_ + 0.129136328125 Q_Td,BB_NCIPD,(9,_10),1_ + 0.1265536015625 Q_Td,BB_NCIPD,(9,_10),2_ + 0.12267951171875 Q_Td,BB_NCIPD,(9,_10),3_ - 1 N_BB_NCIPD,(9,_10)_ >= 0
c158_1: -4.956968683333334e6 W_BB_NCIPD,(9,_10)_ - 1 Y_tilde_BB_NCIPD,9_ + 1 N_BB_NCIPD,(9,_10)_ >= -4.956968683333334e6
c159_1: 0.09829248046875 Q_TT,BB_NCIPD,(10,_10),1_ + 0.096326630859375 Q_TT,BB_NCIPD,(10,_10),2_ + 0.09337785644531249 Q_TT,BB_NCIPD,(10,_10),3_ + 0.16999999999999998 Q_DT,BB_NCIPD,(10,_10),1_ + 0.16659999999999997 Q_DT,BB_NCIPD,(10,_10),2_ + 0.16149999999999998 Q_DT,BB_NCIPD,(10,_10),3_ + 0.1290568359375 Q_Td,BB_NCIPD,(10,_10),1_ + 0.12647569921875 Q_Td,BB_NCIPD,(10,_10),2_ + 0.12260399414062499 Q_Td,BB_NCIPD,(10,_10),3_ - 1 N_BB_NCIPD,(10,_10)_ >= 0
c160_1: -2.478484341666667e6 W_BB_NCIPD,(10,_10)_ - 1 Y_tilde_BB_NCIPD,10_ + 1 N_BB_NCIPD,(10,_10)_ >= -2.478484341666667e6
c161_1: 0.13305 Q_OPV,China_National,(1,_1),1_ + 0.130389 Q_OPV,China_National,(1,_1),2_ + 0.1263975 Q_OPV,China_National,(1,_1),3_ + 4 Q_HPV,China_National,(1,_1),1_ + 3.92 Q_HPV,China_National,(1,_1),2_ + 3.8 Q_HPV,China_National,(1,_1),3_ - 1 N_China_National,(1,_1)_ >= 0
c162_1: -8.0724434175e6 W_China_National,(1,_1)_ - 1 Y_tilde_China_National,1_ + 1 N_China_National,(1,_1)_ >= -8.0724434175e6
c163_1: 0.13305 Q_OPV,China_National,(1,_2),1_ + 0.130389 Q_OPV,China_National,(1,_2),2_ + 0.1263975 Q_OPV,China_National,(1,_2),3_ + 4 Q_HPV,China_National,(1,_2),1_ + 3.92 Q_HPV,China_National,(1,_2),2_ + 3.8 Q_HPV,China_National,(1,_2),3_ - 1 N_China_National,(1,_2)_ >= 0
c164_1: -1.6144886835e7 W_China_National,(1,_2)_ - 1 Y_tilde_China_National,1_ + 1 N_China_National,(1,_2)_ >= -1.6144886835e7
c165_1: 0.13305 Q_OPV,China_National,(1,_3),1_ + 0.130389 Q_OPV,China_National,(1,_3),2_ + 0.1263975 Q_OPV,China_National,(1,_3),3_ + 4 Q_HPV,China_National,(1,_3),1_ + 3.92 Q_HPV,China_National,(1,_3),2_ + 3.8 Q_HPV,China_National,(1,_3),3_ - 1 N_China_National,(1,_3)_ >= 0
c166_1: -2.4217330252499998e7 W_China_National,(1,_3)_ - 1 Y_tilde_China_National,1_ + 1 N_China_National,(1,_3)_ >= -2.4217330252499998e7
c167_1: 0.13305 Q_OPV,China_National,(1,_4),1_ + 0.130389 Q_OPV,China_National,(1,_4),2_ + 0.1263975 Q_OPV,China_National,(1,_4),3_ + 4 Q_HPV,China_National,(1,_4),1_ + 3.92 Q_HPV,China_National,(1,_4),2_ + 3.8 Q_HPV,China_National,(1,_4),3_ - 1 N_China_National,(1,_4)_ >= 0
c168_1: -3.2289773669999994e7 W_China_National,(1,_4)_ - 1 Y_tilde_China_National,1_ + 1 N_China_National,(1,_4)_ >= -3.2289773669999994e7
c169_1: 0.13305 Q_OPV,China_National,(1,_5),1_ + 0.130389 Q_OPV,China_National,(1,_5),2_ + 0.1263975 Q_OPV,China_National,(1,_5),3_ + 4 Q_HPV,China_National,(1,_5),1_ + 3.92 Q_HPV,China_National,(1,_5),2_ + 3.8 Q_HPV,China_National,(1,_5),3_ - 1 N_China_National,(1,_5)_ >= 0
c170_1: -4.03622170875e7 W_China_National,(1,_5)_ - 1 Y_tilde_China_National,1_ + 1 N_China_National,(1,_5)_ >= -4.03622170875e7
c171_1: 0.13693750000000002 Q_OPV,China_National,(2,_2),1_ + 0.13419875 Q_OPV,China_National,(2,_2),2_ + 0.13009062500000002 Q_OPV,China_National,(2,_2),3_ + 4.193333333333333 Q_HPV,China_National,(2,_2),1_ + 4.109466666666667 Q_HPV,China_National,(2,_2),2_ + 3.9836666666666667 Q_HPV,China_National,(2,_2),3_ - 1 N_China_National,(2,_2)_ >= 0
c172_1: -8.0724434175e6 W_China_National,(2,_2)_ - 1 Y_tilde_China_National,2_ + 1 N_China_National,(2,_2)_ >= -8.0724434175e6
c173_1: 0.13693750000000002 Q_OPV,China_National,(2,_3),1_ + 0.13419875 Q_OPV,China_National,(2,_3),2_ + 0.13009062500000002 Q_OPV,China_National,(2,_3),3_ + 4.193333333333333 Q_HPV,China_National,(2,_3),1_ + 4.109466666666667 Q_HPV,China_National,(2,_3),2_ + 3.9836666666666667 Q_HPV,China_National,(2,_3),3_ - 1 N_China_National,(2,_3)_ >= 0
c174_1: -1.6144886835e7 W_China_National,(2,_3)_ - 1 Y_tilde_China_National,2_ + 1 N_China_National,(2,_3)_ >= -1.6144886835e7
c175_1: 0.13693750000000002 Q_OPV,China_National,(2,_4),1_ + 0.13419875 Q_OPV,China_National,(2,_4),2_ + 0.13009062500000002 Q_OPV,China_National,(2,_4),3_ + 4.193333333333333 Q_HPV,China_National,(2,_4),1_ + 4.109466666666667 Q_HPV,China_National,(2,_4),2_ + 3.9836666666666667 Q_HPV,China_National,(2,_4),3_ - 1 N_China_National,(2,_4)_ >= 0
c176_1: -2.4217330252499998e7 W_China_National,(2,_4)_ - 1 Y_tilde_China_National,2_ + 1 N_China_National,(2,_4)_ >= -2.4217330252499998e7
c177_1: 0.13693750000000002 Q_OPV,China_National,(2,_5),1_ + 0.13419875 Q_OPV,China_National,(2,_5),2_ + 0.13009062500000002 Q_OPV,China_National,(2,_5),3_ + 4.193333333333333 Q_HPV,China_National,(2,_5),1_ + 4.109466666666667 Q_HPV,China_National,(2,_5),2_ + 3.9836666666666667 Q_HPV,China_National,(2,_5),3_ - 1 N_China_National,(2,_5)_ >= 0
c178_1: -3.2289773669999994e7 W_China_National,(2,_5)_ - 1 Y_tilde_China_National,2_ + 1 N_China_National,(2,_5)_ >= -3.2289773669999994e7
c179_1: 0.13693750000000002 Q_OPV,China_National,(2,_6),1_ + 0.13419875 Q_OPV,China_National,(2,_6),2_ + 0.13009062500000002 Q_OPV,China_National,(2,_6),3_ + 4.193333333333333 Q_HPV,China_National,(2,_6),1_ + 4.109466666666667 Q_HPV,China_National,(2,_6),2_ + 3.9836666666666667 Q_HPV,China_National,(2,_6),3_ - 1 N_China_National,(2,_6)_ >= 0
c180_1: -4.03622170875e7 W_China_National,(2,_6)_ - 1 Y_tilde_China_National,2_ + 1 N_China_National,(2,_6)_ >= -4.03622170875e7
c181_1: 0.13693750000000002 Q_OPV,China_National,(3,_3),1_ + 0.13419875 Q_OPV,China_National,(3,_3),2_ + 0.13009062500000002 Q_OPV,China_National,(3,_3),3_ + 4.193333333333333 Q_HPV,China_National,(3,_3),1_ + 4.109466666666667 Q_HPV,China_National,(3,_3),2_ + 3.9836666666666667 Q_HPV,China_National,(3,_3),3_ - 1 N_China_National,(3,_3)_ >= 0
c182_1: -8.0724434175e6 W_China_National,(3,_3)_ - 1 Y_tilde_China_National,3_ + 1 N_China_National,(3,_3)_ >= -8.0724434175e6
c183_1: 0.13693750000000002 Q_OPV,China_National,(3,_4),1_ + 0.13419875 Q_OPV,China_National,(3,_4),2_ + 0.13009062500000002 Q_OPV,China_National,(3,_4),3_ + 4.193333333333333 Q_HPV,China_National,(3,_4),1_ + 4.109466666666667 Q_HPV,China_National,(3,_4),2_ + 3.9836666666666667 Q_HPV,China_National,(3,_4),3_ - 1 N_China_National,(3,_4)_ >= 0
c184_1: -1.6144886835e7 W_China_National,(3,_4)_ - 1 Y_tilde_China_National,3_ + 1 N_China_National,(3,_4)_ >= -1.6144886835e7
c185_1: 0.13693750000000002 Q_OPV,China_National,(3,_5),1_ + 0.13419875 Q_OPV,China_National,(3,_5),2_ + 0.13009062500000002 Q_OPV,China_National,(3,_5),3_ + 4.193333333333333 Q_HPV,China_National,(3,_5),1_ + 4.109466666666667 Q_HPV,China_National,(3,_5),2_ + 3.9836666666666667 Q_HPV,China_National,(3,_5),3_ - 1 N_China_National,(3,_5)_ >= 0
c186_1: -2.4217330252499998e7 W_China_National,(3,_5)_ - 1 Y_tilde_China_National,3_ + 1 N_China_National,(3,_5)_ >= -2.4217330252499998e7
c187_1: 0.13693750000000002 Q_OPV,China_National,(3,_6),1_ + 0.13419875 Q_OPV,China_National,(3,_6),2_ + 0.13009062500000002 Q_OPV,China_National,(3,_6),3_ + 4.193333333333333 Q_HPV,China_National,(3,_6),1_ + 4.109466666666667 Q_HPV,China_National,(3,_6),2_ + 3.9836666666666667 Q_HPV,China_National,(3,_6),3_ - 1 N_China_National,(3,_6)_ >= 0
c188_1: -3.2289773669999994e7 W_China_National,(3,_6)_ - 1 Y_tilde_China_National,3_ + 1 N_China_National,(3,_6)_ >= -3.2289773669999994e7
c189_1: 0.13693750000000002 Q_OPV,China_National,(3,_7),1_ + 0.13419875 Q_OPV,China_National,(3,_7),2_ + 0.13009062500000002 Q_OPV,China_National,(3,_7),3_ + 4.193333333333333 Q_HPV,China_National,(3,_7),1_ + 4.109466666666667 Q_HPV,China_National,(3,_7),2_ + 3.9836666666666667 Q_HPV,China_National,(3,_7),3_ - 1 N_China_National,(3,_7)_ >= 0
c190_1: -4.03622170875e7 W_China_National,(3,_7)_ - 1 Y_tilde_China_National,3_ + 1 N_China_National,(3,_7)_ >= -4.03622170875e7
c191_1: 0.13693750000000002 Q_OPV,China_National,(4,_4),1_ + 0.13419875 Q_OPV,China_National,(4,_4),2_ + 0.13009062500000002 Q_OPV,China_National,(4,_4),3_ + 4.193333333333333 Q_HPV,China_National,(4,_4),1_ + 4.109466666666667 Q_HPV,China_National,(4,_4),2_ + 3.9836666666666667 Q_HPV,China_National,(4,_4),3_ - 1 N_China_National,(4,_4)_ >= 0
c192_1: -8.0724434175e6 W_China_National,(4,_4)_ - 1 Y_tilde_China_National,4_ + 1 N_China_National,(4,_4)_ >= -8.0724434175e6
c193_1: 0.13693750000000002 Q_OPV,China_National,(4,_5),1_ + 0.13419875 Q_OPV,China_National,(4,_5),2_ + 0.13009062500000002 Q_OPV,China_National,(4,_5),3_ + 4.193333333333333 Q_HPV,China_National,(4,_5),1_ + 4.109466666666667 Q_HPV,China_National,(4,_5),2_ + 3.9836666666666667 Q_HPV,China_National,(4,_5),3_ - 1 N_China_National,(4,_5)_ >= 0
c194_1: -1.6144886835e7 W_China_National,(4,_5)_ - 1 Y_tilde_China_National,4_ + 1 N_China_National,(4,_5)_ >= -1.6144886835e7
c195_1: 0.13693750000000002 Q_OPV,China_National,(4,_6),1_ + 0.13419875 Q_OPV,China_National,(4,_6),2_ + 0.13009062500000002 Q_OPV,China_National,(4,_6),3_ + 4.193333333333333 Q_HPV,China_National,(4,_6),1_ + 4.109466666666667 Q_HPV,China_National,(4,_6),2_ + 3.9836666666666667 Q_HPV,China_National,(4,_6),3_ - 1 N_China_National,(4,_6)_ >= 0
c196_1: -2.4217330252499998e7 W_China_National,(4,_6)_ - 1 Y_tilde_China_National,4_ + 1 N_China_National,(4,_6)_ >= -2.4217330252499998e7
c197_1: 0.13693750000000002 Q_OPV,China_National,(4,_7),1_ + 0.13419875 Q_OPV,China_National,(4,_7),2_ + 0.13009062500000002 Q_OPV,China_National,(4,_7),3_ + 4.193333333333333 Q_HPV,China_National,(4,_7),1_ + 4.109466666666667 Q_HPV,China_National,(4,_7),2_ + 3.9836666666666667 Q_HPV,China_National,(4,_7),3_ - 1 N_China_National,(4,_7)_ >= 0
c198_1: -3.2289773669999994e7 W_China_National,(4,_7)_ - 1 Y_tilde_China_National,4_ + 1 N_China_National,(4,_7)_ >= -3.2289773669999994e7
c199_1: 0.13693750000000002 Q_OPV,China_National,(4,_8),1_ + 0.13419875 Q_OPV,China_National,(4,_8),2_ + 0.13009062500000002 Q_OPV,China_National,(4,_8),3_ + 4.193333333333333 Q_HPV,China_National,(4,_8),1_ + 4.109466666666667 Q_HPV,China_National,(4,_8),2_ + 3.9836666666666667 Q_HPV,China_National,(4,_8),3_ - 1 N_China_National,(4,_8)_ >= 0
c200_1: -4.03622170875e7 W_China_National,(4,_8)_ - 1 Y_tilde_China_National,4_ + 1 N_China_National,(4,_8)_ >= -4.03622170875e7
c201_1: 0.13693750000000002 Q_OPV,China_National,(5,_5),1_ + 0.13419875 Q_OPV,China_National,(5,_5),2_ + 0.13009062500000002 Q_OPV,China_National,(5,_5),3_ + 4.193333333333333 Q_HPV,China_National,(5,_5),1_ + 4.109466666666667 Q_HPV,China_National,(5,_5),2_ + 3.9836666666666667 Q_HPV,China_National,(5,_5),3_ - 1 N_China_National,(5,_5)_ >= 0
c202_1: -8.0724434175e6 W_China_National,(5,_5)_ - 1 Y_tilde_China_National,5_ + 1 N_China_National,(5,_5)_ >= -8.0724434175e6
c203_1: 0.13693750000000002 Q_OPV,China_National,(5,_6),1_ + 0.13419875 Q_OPV,China_National,(5,_6),2_ + 0.13009062500000002 Q_OPV,China_National,(5,_6),3_ + 4.193333333333333 Q_HPV,China_National,(5,_6),1_ + 4.109466666666667 Q_HPV,China_National,(5,_6),2_ + 3.9836666666666667 Q_HPV,China_National,(5,_6),3_ - 1 N_China_National,(5,_6)_ >= 0
c204_1: -1.6144886835e7 W_China_National,(5,_6)_ - 1 Y_tilde_China_National,5_ + 1 N_China_National,(5,_6)_ >= -1.6144886835e7
c205_1: 0.13693750000000002 Q_OPV,China_National,(5,_7),1_ + 0.13419875 Q_OPV,China_National,(5,_7),2_ + 0.13009062500000002 Q_OPV,China_National,(5,_7),3_ + 4.193333333333333 Q_HPV,China_National,(5,_7),1_ + 4.109466666666667 Q_HPV,China_National,(5,_7),2_ + 3.9836666666666667 Q_HPV,China_National,(5,_7),3_ - 1 N_China_National,(5,_7)_ >= 0
c206_1: -2.4217330252499998e7 W_China_National,(5,_7)_ - 1 Y_tilde_China_National,5_ + 1 N_China_National,(5,_7)_ >= -2.4217330252499998e7
c207_1: 0.13693750000000002 Q_OPV,China_National,(5,_8),1_ + 0.13419875 Q_OPV,China_National,(5,_8),2_ + 0.13009062500000002 Q_OPV,China_National,(5,_8),3_ + 4.193333333333333 Q_HPV,China_National,(5,_8),1_ + 4.109466666666667 Q_HPV,China_National,(5,_8),2_ + 3.9836666666666667 Q_HPV,China_National,(5,_8),3_ - 1 N_China_National,(5,_8)_ >= 0
c208_1: -3.2289773669999994e7 W_China_National,(5,_8)_ - 1 Y_tilde_China_National,5_ + 1 N_China_National,(5,_8)_ >= -3.2289773669999994e7
c209_1: 0.13693750000000002 Q_OPV,China_National,(5,_9),1_ + 0.13419875 Q_OPV,China_National,(5,_9),2_ + 0.13009062500000002 Q_OPV,China_National,(5,_9),3_ + 4.193333333333333 Q_HPV,China_National,(5,_9),1_ + 4.109466666666667 Q_HPV,China_National,(5,_9),2_ + 3.9836666666666667 Q_HPV,China_National,(5,_9),3_ - 1 N_China_National,(5,_9)_ >= 0
c210_1: -4.03622170875e7 W_China_National,(5,_9)_ - 1 Y_tilde_China_National,5_ + 1 N_China_National,(5,_9)_ >= -4.03622170875e7
c211_1: 0.13693750000000002 Q_OPV,China_National,(6,_6),1_ + 0.13419875 Q_OPV,China_National,(6,_6),2_ + 0.13009062500000002 Q_OPV,China_National,(6,_6),3_ + 4.193333333333333 Q_HPV,China_National,(6,_6),1_ + 4.109466666666667 Q_HPV,China_National,(6,_6),2_ + 3.9836666666666667 Q_HPV,China_National,(6,_6),3_ - 1 N_China_National,(6,_6)_ >= 0
c212_1: -8.0724434175e6 W_China_National,(6,_6)_ - 1 Y_tilde_China_National,6_ + 1 N_China_National,(6,_6)_ >= -8.0724434175e6
c213_1: 0.13693750000000002 Q_OPV,China_National,(6,_7),1_ + 0.13419875 Q_OPV,China_National,(6,_7),2_ + 0.13009062500000002 Q_OPV,China_National,(6,_7),3_ + 4.193333333333333 Q_HPV,China_National,(6,_7),1_ + 4.109466666666667 Q_HPV,China_National,(6,_7),2_ + 3.9836666666666667 Q_HPV,China_National,(6,_7),3_ - 1 N_China_National,(6,_7)_ >= 0
c214_1: -1.6144886835e7 W_China_National,(6,_7)_ - 1 Y_tilde_China_National,6_ + 1 N_China_National,(6,_7)_ >= -1.6144886835e7
c215_1: 0.13693750000000002 Q_OPV,China_National,(6,_8),1_ + 0.13419875 Q_OPV,China_National,(6,_8),2_ + 0.13009062500000002 Q_OPV,China_National,(6,_8),3_ + 4.193333333333333 Q_HPV,China_National,(6,_8),1_ + 4.109466666666667 Q_HPV,China_National,(6,_8),2_ + 3.9836666666666667 Q_HPV,China_National,(6,_8),3_ - 1 N_China_National,(6,_8)_ >= 0
c216_1: -2.4217330252499998e7 W_China_National,(6,_8)_ - 1 Y_tilde_China_National,6_ + 1 N_China_National,(6,_8)_ >= -2.4217330252499998e7
c217_1: 0.13693750000000002 Q_OPV,China_National,(6,_9),1_ + 0.13419875 Q_OPV,China_National,(6,_9),2_ + 0.13009062500000002 Q_OPV,China_National,(6,_9),3_ + 4.193333333333333 Q_HPV,China_National,(6,_9),1_ + 4.109466666666667 Q_HPV,China_National,(6,_9),2_ + 3.9836666666666667 Q_HPV,China_National,(6,_9),3_ - 1 N_China_National,(6,_9)_ >= 0
c218_1: -3.2289773669999994e7 W_China_National,(6,_9)_ - 1 Y_tilde_China_National,6_ + 1 N_China_National,(6,_9)_ >= -3.2289773669999994e7
c219_1: 0.13693750000000002 Q_OPV,China_National,(6,_10),1_ + 0.13419875 Q_OPV,China_National,(6,_10),2_ + 0.13009062500000002 Q_OPV,China_National,(6,_10),3_ + 4.193333333333333 Q_HPV,China_National,(6,_10),1_ + 4.109466666666667 Q_HPV,China_National,(6,_10),2_ + 3.9836666666666667 Q_HPV,China_National,(6,_10),3_ - 1 N_China_National,(6,_10)_ >= 0
c220_1: -4.03622170875e7 W_China_National,(6,_10)_ - 1 Y_tilde_China_National,6_ + 1 N_China_National,(6,_10)_ >= -4.03622170875e7
c221_1: 0.13693750000000002 Q_OPV,China_National,(7,_7),1_ + 0.13419875 Q_OPV,China_National,(7,_7),2_ + 0.13009062500000002 Q_OPV,China_National,(7,_7),3_ + 4.193333333333333 Q_HPV,China_National,(7,_7),1_ + 4.109466666666667 Q_HPV,China_National,(7,_7),2_ + 3.9836666666666667 Q_HPV,China_National,(7,_7),3_ - 1 N_China_National,(7,_7)_ >= 0
c222_1: -8.0724434175e6 W_China_National,(7,_7)_ - 1 Y_tilde_China_National,7_ + 1 N_China_National,(7,_7)_ >= -8.0724434175e6
c223_1: 0.13693750000000002 Q_OPV,China_National,(7,_8),1_ + 0.13419875 Q_OPV,China_National,(7,_8),2_ + 0.13009062500000002 Q_OPV,China_National,(7,_8),3_ + 4.193333333333333 Q_HPV,China_National,(7,_8),1_ + 4.109466666666667 Q_HPV,China_National,(7,_8),2_ + 3.9836666666666667 Q_HPV,China_National,(7,_8),3_ - 1 N_China_National,(7,_8)_ >= 0
c224_1: -1.6144886835e7 W_China_National,(7,_8)_ - 1 Y_tilde_China_National,7_ + 1 N_China_National,(7,_8)_ >= -1.6144886835e7
c225_1: 0.13693750000000002 Q_OPV,China_National,(7,_9),1_ + 0.13419875 Q_OPV,China_National,(7,_9),2_ + 0.13009062500000002 Q_OPV,China_National,(7,_9),3_ + 4.193333333333333 Q_HPV,China_National,(7,_9),1_ + 4.109466666666667 Q_HPV,China_National,(7,_9),2_ + 3.9836666666666667 Q_HPV,China_National,(7,_9),3_ - 1 N_China_National,(7,_9)_ >= 0
c226_1: -2.4217330252499998e7 W_China_National,(7,_9)_ - 1 Y_tilde_China_National,7_ + 1 N_China_National,(7,_9)_ >= -2.4217330252499998e7
c227_1: 0.13693750000000002 Q_OPV,China_National,(7,_10),1_ + 0.13419875 Q_OPV,China_National,(7,_10),2_ + 0.13009062500000002 Q_OPV,China_National,(7,_10),3_ + 4.193333333333333 Q_HPV,China_National,(7,_10),1_ + 4.109466666666667 Q_HPV,China_National,(7,_10),2_ + 3.9836666666666667 Q_HPV,China_National,(7,_10),3_ - 1 N_China_National,(7,_10)_ >= 0
c228_1: -3.2289773669999994e7 W_China_National,(7,_10)_ - 1 Y_tilde_China_National,7_ + 1 N_China_National,(7,_10)_ >= -3.2289773669999994e7
c229_1: 0.13693750000000002 Q_OPV,China_National,(8,_8),1_ + 0.13419875 Q_OPV,China_National,(8,_8),2_ + 0.13009062500000002 Q_OPV,China_National,(8,_8),3_ + 4.193333333333333 Q_HPV,China_National,(8,_8),1_ + 4.109466666666667 Q_HPV,China_National,(8,_8),2_ + 3.9836666666666667 Q_HPV,China_National,(8,_8),3_ - 1 N_China_National,(8,_8)_ >= 0
c230_1: -8.0724434175e6 W_China_National,(8,_8)_ - 1 Y_tilde_China_National,8_ + 1 N_China_National,(8,_8)_ >= -8.0724434175e6
c231_1: 0.13693750000000002 Q_OPV,China_National,(8,_9),1_ + 0.13419875 Q_OPV,China_National,(8,_9),2_ + 0.13009062500000002 Q_OPV,China_National,(8,_9),3_ + 4.193333333333333 Q_HPV,China_National,(8,_9),1_ + 4.109466666666667 Q_HPV,China_National,(8,_9),2_ + 3.9836666666666667 Q_HPV,China_National,(8,_9),3_ - 1 N_China_National,(8,_9)_ >= 0
c232_1: -1.6144886835e7 W_China_National,(8,_9)_ - 1 Y_tilde_China_National,8_ + 1 N_China_National,(8,_9)_ >= -1.6144886835e7
c233_1: 0.13693750000000002 Q_OPV,China_National,(8,_10),1_ + 0.13419875 Q_OPV,China_National,(8,_10),2_ + 0.13009062500000002 Q_OPV,China_National,(8,_10),3_ + 4.193333333333333 Q_HPV,China_National,(8,_10),1_ + 4.109466666666667 Q_HPV,China_National,(8,_10),2_ + 3.9836666666666667 Q_HPV,China_National,(8,_10),3_ - 1 N_China_National,(8,_10)_ >= 0
c234_1: -2.4217330252499998e7 W_China_National,(8,_10)_ - 1 Y_tilde_China_National,8_ + 1 N_China_National,(8,_10)_ >= -2.4217330252499998e7
c235_1: 0.13693750000000002 Q_OPV,China_National,(9,_9),1_ + 0.13419875 Q_OPV,China_National,(9,_9),2_ + 0.13009062500000002 Q_OPV,China_National,(9,_9),3_ + 4.193333333333333 Q_HPV,China_National,(9,_9),1_ + 4.109466666666667 Q_HPV,China_National,(9,_9),2_ + 3.9836666666666667 Q_HPV,China_National,(9,_9),3_ - 1 N_China_National,(9,_9)_ >= 0
c236_1: -8.0724434175e6 W_China_National,(9,_9)_ - 1 Y_tilde_China_National,9_ + 1 N_China_National,(9,_9)_ >= -8.0724434175e6
c237_1: 0.13693750000000002 Q_OPV,China_National,(9,_10),1_ + 0.13419875 Q_OPV,China_National,(9,_10),2_ + 0.13009062500000002 Q_OPV,China_National,(9,_10),3_ + 4.193333333333333 Q_HPV,China_National,(9,_10),1_ + 4.109466666666667 Q_HPV,China_National,(9,_10),2_ + 3.9836666666666667 Q_HPV,China_National,(9,_10),3_ - 1 N_China_National,(9,_10)_ >= 0
c238_1: -1.6144886835e7 W_China_National,(9,_10)_ - 1 Y_tilde_China_National,9_ + 1 N_China_National,(9,_10)_ >= -1.6144886835e7
c239_1: 0.13693750000000002 Q_OPV,China_National,(10,_10),1_ + 0.13419875 Q_OPV,China_National,(10,_10),2_ + 0.13009062500000002 Q_OPV,China_National,(10,_10),3_ + 4.193333333333333 Q_HPV,China_National,(10,_10),1_ + 4.109466666666667 Q_HPV,China_National,(10,_10),2_ + 3.9836666666666667 Q_HPV,China_National,(10,_10),3_ - 1 N_China_National,(10,_10)_ >= 0
c240_1: -8.0724434175e6 W_China_National,(10,_10)_ - 1 Y_tilde_China_National,10_ + 1 N_China_National,(10,_10)_ >= -8.0724434175e6
c241_1: 0.13305 Q_OPV,Bharat_Biotech,(1,_1),1_ + 0.130389 Q_OPV,Bharat_Biotech,(1,_1),2_ + 0.1263975 Q_OPV,Bharat_Biotech,(1,_1),3_ + 1.2642666666666666 Q_Rotavirus,Bharat_Biotech,(1,_1),1_ + 1.2389813333333333 Q_Rotavirus,Bharat_Biotech,(1,_1),2_ + 1.2010533333333333 Q_Rotavirus,Bharat_Biotech,(1,_1),3_ - 1 N_Bharat_Biotech,(1,_1)_ >= 0
c242_1: -1.6048253375000004e7 W_Bharat_Biotech,(1,_1)_ - 1 Y_tilde_Bharat_Biotech,1_ + 1 N_Bharat_Biotech,(1,_1)_ >= -1.6048253375000004e7
c243_1: 0.13305 Q_OPV,Bharat_Biotech,(1,_2),1_ + 0.130389 Q_OPV,Bharat_Biotech,(1,_2),2_ + 0.1263975 Q_OPV,Bharat_Biotech,(1,_2),3_ + 1.2642666666666666 Q_Rotavirus,Bharat_Biotech,(1,_2),1_ + 1.2389813333333333 Q_Rotavirus,Bharat_Biotech,(1,_2),2_ + 1.2010533333333333 Q_Rotavirus,Bharat_Biotech,(1,_2),3_ - 1 N_Bharat_Biotech,(1,_2)_ >= 0
c244_1: -3.2096506750000004e7 W_Bharat_Biotech,(1,_2)_ - 1 Y_tilde_Bharat_Biotech,1_ + 1 N_Bharat_Biotech,(1,_2)_ >= -3.2096506750000004e7
c245_1: 0.13305 Q_OPV,Bharat_Biotech,(1,_3),1_ + 0.130389 Q_OPV,Bharat_Biotech,(1,_3),2_ + 0.1263975 Q_OPV,Bharat_Biotech,(1,_3),3_ + 1.2642666666666666 Q_Rotavirus,Bharat_Biotech,(1,_3),1_ + 1.2389813333333333 Q_Rotavirus,Bharat_Biotech,(1,_3),2_ + 1.2010533333333333 Q_Rotavirus,Bharat_Biotech,(1,_3),3_ - 1 N_Bharat_Biotech,(1,_3)_ >= 0
c246_1: -4.814476012500001e7 W_Bharat_Biotech,(1,_3)_ - 1 Y_tilde_Bharat_Biotech,1_ + 1 N_Bharat_Biotech,(1,_3)_ >= -4.814476012500001e7
c247_1: 0.13305 Q_OPV,Bharat_Biotech,(1,_4),1_ + 0.130389 Q_OPV,Bharat_Biotech,(1,_4),2_ + 0.1263975 Q_OPV,Bharat_Biotech,(1,_4),3_ + 1.2642666666666666 Q_Rotavirus,Bharat_Biotech,(1,_4),1_ + 1.2389813333333333 Q_Rotavirus,Bharat_Biotech,(1,_4),2_ + 1.2010533333333333 Q_Rotavirus,Bharat_Biotech,(1,_4),3_ - 1 N_Bharat_Biotech,(1,_4)_ >= 0
c248_1: -6.419301350000001e7 W_Bharat_Biotech,(1,_4)_ - 1 Y_tilde_Bharat_Biotech,1_ + 1 N_Bharat_Biotech,(1,_4)_ >= -6.419301350000001e7
c249_1: 0.13305 Q_OPV,Bharat_Biotech,(1,_5),1_ + 0.130389 Q_OPV,Bharat_Biotech,(1,_5),2_ + 0.1263975 Q_OPV,Bharat_Biotech,(1,_5),3_ + 1.2642666666666666 Q_Rotavirus,Bharat_Biotech,(1,_5),1_ + 1.2389813333333333 Q_Rotavirus,Bharat_Biotech,(1,_5),2_ + 1.2010533333333333 Q_Rotavirus,Bharat_Biotech,(1,_5),3_ - 1 N_Bharat_Biotech,(1,_5)_ >= 0
c250_1: -8.024126687500001e7 W_Bharat_Biotech,(1,_5)_ - 1 Y_tilde_Bharat_Biotech,1_ + 1 N_Bharat_Biotech,(1,_5)_ >= -8.024126687500001e7
c251_1: 0.13693750000000002 Q_OPV,Bharat_Biotech,(2,_2),1_ + 0.13419875 Q_OPV,Bharat_Biotech,(2,_2),2_ + 0.13009062500000002 Q_OPV,Bharat_Biotech,(2,_2),3_ + 1.3535000000000001 Q_Rotavirus,Bharat_Biotech,(2,_2),1_ + 1.3264300000000002 Q_Rotavirus,Bharat_Biotech,(2,_2),2_ + 1.285825 Q_Rotavirus,Bharat_Biotech,(2,_2),3_ - 1 N_Bharat_Biotech,(2,_2)_ >= 0
c252_1: -1.6048253375000004e7 W_Bharat_Biotech,(2,_2)_ - 1 Y_tilde_Bharat_Biotech,2_ + 1 N_Bharat_Biotech,(2,_2)_ >= -1.6048253375000004e7
c253_1: 0.13693750000000002 Q_OPV,Bharat_Biotech,(2,_3),1_ + 0.13419875 Q_OPV,Bharat_Biotech,(2,_3),2_ + 0.13009062500000002 Q_OPV,Bharat_Biotech,(2,_3),3_ + 1.3535000000000001 Q_Rotavirus,Bharat_Biotech,(2,_3),1_ + 1.3264300000000002 Q_Rotavirus,Bharat_Biotech,(2,_3),2_ + 1.285825 Q_Rotavirus,Bharat_Biotech,(2,_3),3_ - 1 N_Bharat_Biotech,(2,_3)_ >= 0
c254_1: -3.2096506750000004e7 W_Bharat_Biotech,(2,_3)_ - 1 Y_tilde_Bharat_Biotech,2_ + 1 N_Bharat_Biotech,(2,_3)_ >= -3.2096506750000004e7
c255_1: 0.13693750000000002 Q_OPV,Bharat_Biotech,(2,_4),1_ + 0.13419875 Q_OPV,Bharat_Biotech,(2,_4),2_ + 0.13009062500000002 Q_OPV,Bharat_Biotech,(2,_4),3_ + 1.3535000000000001 Q_Rotavirus,Bharat_Biotech,(2,_4),1_ + 1.3264300000000002 Q_Rotavirus,Bharat_Biotech,(2,_4),2_ + 1.285825 Q_Rotavirus,Bharat_Biotech,(2,_4),3_ - 1 N_Bharat_Biotech,(2,_4)_ >= 0
c256_1: -4.814476012500001e7 W_Bharat_Biotech,(2,_4)_ - 1 Y_tilde_Bharat_Biotech,2_ + 1 N_Bharat_Biotech,(2,_4)_ >= -4.814476012500001e7
c257_1: 0.13693750000000002 Q_OPV,Bharat_Biotech,(2,_5),1_ + 0.13419875 Q_OPV,Bharat_Biotech,(2,_5),2_ + 0.13009062500000002 Q_OPV,Bharat_Biotech,(2,_5),3_ + 1.3535000000000001 Q_Rotavirus,Bharat_Biotech,(2,_5),1_ + 1.3264300000000002 Q_Rotavirus,Bharat_Biotech,(2,_5),2_ + 1.285825 Q_Rotavirus,Bharat_Biotech,(2,_5),3_ - 1 N_Bharat_Biotech,(2,_5)_ >= 0
c258_1: -6.419301350000001e7 W_Bharat_Biotech,(2,_5)_ - 1 Y_tilde_Bharat_Biotech,2_ + 1 N_Bharat_Biotech,(2,_5)_ >= -6.419301350000001e7
c259_1: 0.13693750000000002 Q_OPV,Bharat_Biotech,(2,_6),1_ + 0.13419875 Q_OPV,Bharat_Biotech,(2,_6),2_ + 0.13009062500000002 Q_OPV,Bharat_Biotech,(2,_6),3_ + 1.3535000000000001 Q_Rotavirus,Bharat_Biotech,(2,_6),1_ + 1.3264300000000002 Q_Rotavirus,Bharat_Biotech,(2,_6),2_ + 1.285825 Q_Rotavirus,Bharat_Biotech,(2,_6),3_ - 1 N_Bharat_Biotech,(2,_6)_ >= 0
c260_1: -8.024126687500001e7 W_Bharat_Biotech,(2,_6)_ - 1 Y_tilde_Bharat_Biotech,2_ + 1 N_Bharat_Biotech,(2,_6)_ >= -8.024126687500001e7
c261_1: 0.13693750000000002 Q_OPV,Bharat_Biotech,(3,_3),1_ + 0.13419875 Q_OPV,Bharat_Biotech,(3,_3),2_ + 0.13009062500000002 Q_OPV,Bharat_Biotech,(3,_3),3_ + 1.3535000000000001 Q_Rotavirus,Bharat_Biotech,(3,_3),1_ + 1.3264300000000002 Q_Rotavirus,Bharat_Biotech,(3,_3),2_ + 1.285825 Q_Rotavirus,Bharat_Biotech,(3,_3),3_ - 1 N_Bharat_Biotech,(3,_3)_ >= 0
c262_1: -1.6048253375000004e7 W_Bharat_Biotech,(3,_3)_ - 1 Y_tilde_Bharat_Biotech,3_ + 1 N_Bharat_Biotech,(3,_3)_ >= -1.6048253375000004e7
c263_1: 0.13693750000000002 Q_OPV,Bharat_Biotech,(3,_4),1_ + 0.13419875 Q_OPV,Bharat_Biotech,(3,_4),2_ + 0.13009062500000002 Q_OPV,Bharat_Biotech,(3,_4),3_ + 1.3535000000000001 Q_Rotavirus,Bharat_Biotech,(3,_4),1_ + 1.3264300000000002 Q_Rotavirus,Bharat_Biotech,(3,_4),2_ + 1.285825 Q_Rotavirus,Bharat_Biotech,(3,_4),3_ - 1 N_Bharat_Biotech,(3,_4)_ >= 0
c264_1: -3.2096506750000004e7 W_Bharat_Biotech,(3,_4)_ - 1 Y_tilde_Bharat_Biotech,3_ + 1 N_Bharat_Biotech,(3,_4)_ >= -3.2096506750000004e7
c265_1: 0.13693750000000002 Q_OPV,Bharat_Biotech,(3,_5),1_ + 0.13419875 Q_OPV,Bharat_Biotech,(3,_5),2_ + 0.13009062500000002 Q_OPV,Bharat_Biotech,(3,_5),3_ + 1.3535000000000001 Q_Rotavirus,Bharat_Biotech,(3,_5),1_ + 1.3264300000000002 Q_Rotavirus,Bharat_Biotech,(3,_5),2_ + 1.285825 Q_Rotavirus,Bharat_Biotech,(3,_5),3_ - 1 N_Bharat_Biotech,(3,_5)_ >= 0
c266_1: -4.814476012500001e7 W_Bharat_Biotech,(3,_5)_ - 1 Y_tilde_Bharat_Biotech,3_ + 1 N_Bharat_Biotech,(3,_5)_ >= -4.814476012500001e7
c267_1: 0.13693750000000002 Q_OPV,Bharat_Biotech,(3,_6),1_ + 0.13419875 Q_OPV,Bharat_Biotech,(3,_6),2_ + 0.13009062500000002 Q_OPV,Bharat_Biotech,(3,_6),3_ + 1.3535000000000001 Q_Rotavirus,Bharat_Biotech,(3,_6),1_ + 1.3264300000000002 Q_Rotavirus,Bharat_Biotech,(3,_6),2_ + 1.285825 Q_Rotavirus,Bharat_Biotech,(3,_6),3_ - 1 N_Bharat_Biotech,(3,_6)_ >= 0
c268_1: -6.419301350000001e7 W_Bharat_Biotech,(3,_6)_ - 1 Y_tilde_Bharat_Biotech,3_ + 1 N_Bharat_Biotech,(3,_6)_ >= -6.419301350000001e7
c269_1: 0.13693750000000002 Q_OPV,Bharat_Biotech,(3,_7),1_ + 0.13419875 Q_OPV,Bharat_Biotech,(3,_7),2_ + 0.13009062500000002 Q_OPV,Bharat_Biotech,(3,_7),3_ + 1.3535000000000001 Q_Rotavirus,Bharat_Biotech,(3,_7),1_ + 1.3264300000000002 Q_Rotavirus,Bharat_Biotech,(3,_7),2_ + 1.285825 Q_Rotavirus,Bharat_Biotech,(3,_7),3_ - 1 N_Bharat_Biotech,(3,_7)_ >= 0
c270_1: -8.024126687500001e7 W_Bharat_Biotech,(3,_7)_ - 1 Y_tilde_Bharat_Biotech,3_ + 1 N_Bharat_Biotech,(3,_7)_ >= -8.024126687500001e7
c271_1: 0.13693750000000002 Q_OPV,Bharat_Biotech,(4,_4),1_ + 0.13419875 Q_OPV,Bharat_Biotech,(4,_4),2_ + 0.13009062500000002 Q_OPV,Bharat_Biotech,(4,_4),3_ + 1.3646111111111112 Q_Rotavirus,Bharat_Biotech,(4,_4),1_ + 1.337318888888889 Q_Rotavirus,Bharat_Biotech,(4,_4),2_ + 1.2963805555555556 Q_Rotavirus,Bharat_Biotech,(4,_4),3_ - 1 N_Bharat_Biotech,(4,_4)_ >= 0
c272_1: -1.6048253375000004e7 W_Bharat_Biotech,(4,_4)_ - 1 Y_tilde_Bharat_Biotech,4_ + 1 N_Bharat_Biotech,(4,_4)_ >= -1.6048253375000004e7
c273_1: 0.13693750000000002 Q_OPV,Bharat_Biotech,(4,_5),1_ + 0.13419875 Q_OPV,Bharat_Biotech,(4,_5),2_ + 0.13009062500000002 Q_OPV,Bharat_Biotech,(4,_5),3_ + 1.3646111111111112 Q_Rotavirus,Bharat_Biotech,(4,_5),1_ + 1.337318888888889 Q_Rotavirus,Bharat_Biotech,(4,_5),2_ + 1.2963805555555556 Q_Rotavirus,Bharat_Biotech,(4,_5),3_ - 1 N_Bharat_Biotech,(4,_5)_ >= 0
c274_1: -3.2096506750000004e7 W_Bharat_Biotech,(4,_5)_ - 1 Y_tilde_Bharat_Biotech,4_ + 1 N_Bharat_Biotech,(4,_5)_ >= -3.2096506750000004e7
c275_1: 0.13693750000000002 Q_OPV,Bharat_Biotech,(4,_6),1_ + 0.13419875 Q_OPV,Bharat_Biotech,(4,_6),2_ + 0.13009062500000002 Q_OPV,Bharat_Biotech,(4,_6),3_ + 1.3646111111111112 Q_Rotavirus,Bharat_Biotech,(4,_6),1_ + 1.337318888888889 Q_Rotavirus,Bharat_Biotech,(4,_6),2_ + 1.2963805555555556 Q_Rotavirus,Bharat_Biotech,(4,_6),3_ - 1 N_Bharat_Biotech,(4,_6)_ >= 0
c276_1: -4.814476012500001e7 W_Bharat_Biotech,(4,_6)_ - 1 Y_tilde_Bharat_Biotech,4_ + 1 N_Bharat_Biotech,(4,_6)_ >= -4.814476012500001e7
c277_1: 0.13693750000000002 Q_OPV,Bharat_Biotech,(4,_7),1_ + 0.13419875 Q_OPV,Bharat_Biotech,(4,_7),2_ + 0.13009062500000002 Q_OPV,Bharat_Biotech,(4,_7),3_ + 1.3646111111111112 Q_Rotavirus,Bharat_Biotech,(4,_7),1_ + 1.337318888888889 Q_Rotavirus,Bharat_Biotech,(4,_7),2_ + 1.2963805555555556 Q_Rotavirus,Bharat_Biotech,(4,_7),3_ - 1 N_Bharat_Biotech,(4,_7)_ >= 0
c278_1: -6.419301350000001e7 W_Bharat_Biotech,(4,_7)_ - 1 Y_tilde_Bharat_Biotech,4_ + 1 N_Bharat_Biotech,(4,_7)_ >= -6.419301350000001e7
c279_1: 0.13693750000000002 Q_OPV,Bharat_Biotech,(4,_8),1_ + 0.13419875 Q_OPV,Bharat_Biotech,(4,_8),2_ + 0.13009062500000002 Q_OPV,Bharat_Biotech,(4,_8),3_ + 1.3646111111111112 Q_Rotavirus,Bharat_Biotech,(4,_8),1_ + 1.337318888888889 Q_Rotavirus,Bharat_Biotech,(4,_8),2_ + 1.2963805555555556 Q_Rotavirus,Bharat_Biotech,(4,_8),3_ - 1 N_Bharat_Biotech,(4,_8)_ >= 0
c280_1: -8.024126687500001e7 W_Bharat_Biotech,(4,_8)_ - 1 Y_tilde_Bharat_Biotech,4_ + 1 N_Bharat_Biotech,(4,_8)_ >= -8.024126687500001e7
c281_1: 0.13693750000000002 Q_OPV,Bharat_Biotech,(5,_5),1_ + 0.13419875 Q_OPV,Bharat_Biotech,(5,_5),2_ + 0.13009062500000002 Q_OPV,Bharat_Biotech,(5,_5),3_ + 1.3437777777777777 Q_Rotavirus,Bharat_Biotech,(5,_5),1_ + 1.3169022222222222 Q_Rotavirus,Bharat_Biotech,(5,_5),2_ + 1.2765888888888888 Q_Rotavirus,Bharat_Biotech,(5,_5),3_ - 1 N_Bharat_Biotech,(5,_5)_ >= 0
c282_1: -1.6048253375000004e7 W_Bharat_Biotech,(5,_5)_ - 1 Y_tilde_Bharat_Biotech,5_ + 1 N_Bharat_Biotech,(5,_5)_ >= -1.6048253375000004e7
c283_1: 0.13693750000000002 Q_OPV,Bharat_Biotech,(5,_6),1_ + 0.13419875 Q_OPV,Bharat_Biotech,(5,_6),2_ + 0.13009062500000002 Q_OPV,Bharat_Biotech,(5,_6),3_ + 1.3437777777777777 Q_Rotavirus,Bharat_Biotech,(5,_6),1_ + 1.3169022222222222 Q_Rotavirus,Bharat_Biotech,(5,_6),2_ + 1.2765888888888888 Q_Rotavirus,Bharat_Biotech,(5,_6),3_ - 1 N_Bharat_Biotech,(5,_6)_ >= 0
c284_1: -3.2096506750000004e7 W_Bharat_Biotech,(5,_6)_ - 1 Y_tilde_Bharat_Biotech,5_ + 1 N_Bharat_Biotech,(5,_6)_ >= -3.2096506750000004e7
c285_1: 0.13693750000000002 Q_OPV,Bharat_Biotech,(5,_7),1_ + 0.13419875 Q_OPV,Bharat_Biotech,(5,_7),2_ + 0.13009062500000002 Q_OPV,Bharat_Biotech,(5,_7),3_ + 1.3437777777777777 Q_Rotavirus,Bharat_Biotech,(5,_7),1_ + 1.3169022222222222 Q_Rotavirus,Bharat_Biotech,(5,_7),2_ + 1.2765888888888888 Q_Rotavirus,Bharat_Biotech,(5,_7),3_ - 1 N_Bharat_Biotech,(5,_7)_ >= 0
c286_1: -4.814476012500001e7 W_Bharat_Biotech,(5,_7)_ - 1 Y_tilde_Bharat_Biotech,5_ + 1 N_Bharat_Biotech,(5,_7)_ >= -4.814476012500001e7
c287_1: 0.13693750000000002 Q_OPV,Bharat_Biotech,(5,_8),1_ + 0.13419875 Q_OPV,Bharat_Biotech,(5,_8),2_ + 0.13009062500000002 Q_OPV,Bharat_Biotech,(5,_8),3_ + 1.3437777777777777 Q_Rotavirus,Bharat_Biotech,(5,_8),1_ + 1.3169022222222222 Q_Rotavirus,Bharat_Biotech,(5,_8),2_ + 1.2765888888888888 Q_Rotavirus,Bharat_Biotech,(5,_8),3_ - 1 N_Bharat_Biotech,(5,_8)_ >= 0
c288_1: -6.419301350000001e7 W_Bharat_Biotech,(5,_8)_ - 1 Y_tilde_Bharat_Biotech,5_ + 1 N_Bharat_Biotech,(5,_8)_ >= -6.419301350000001e7
c289_1: 0.13693750000000002 Q_OPV,Bharat_Biotech,(5,_9),1_ + 0.13419875 Q_OPV,Bharat_Biotech,(5,_9),2_ + 0.13009062500000002 Q_OPV,Bharat_Biotech,(5,_9),3_ + 1.3437777777777777 Q_Rotavirus,Bharat_Biotech,(5,_9),1_ + 1.3169022222222222 Q_Rotavirus,Bharat_Biotech,(5,_9),2_ + 1.2765888888888888 Q_Rotavirus,Bharat_Biotech,(5,_9),3_ - 1 N_Bharat_Biotech,(5,_9)_ >= 0
c290_1: -8.024126687500001e7 W_Bharat_Biotech,(5,_9)_ - 1 Y_tilde_Bharat_Biotech,5_ + 1 N_Bharat_Biotech,(5,_9)_ >= -8.024126687500001e7
c291_1: 0.13693750000000002 Q_OPV,Bharat_Biotech,(6,_6),1_ + 0.13419875 Q_OPV,Bharat_Biotech,(6,_6),2_ + 0.13009062500000002 Q_OPV,Bharat_Biotech,(6,_6),3_ + 1.3548888888888888 Q_Rotavirus,Bharat_Biotech,(6,_6),1_ + 1.327791111111111 Q_Rotavirus,Bharat_Biotech,(6,_6),2_ + 1.2871444444444442 Q_Rotavirus,Bharat_Biotech,(6,_6),3_ - 1 N_Bharat_Biotech,(6,_6)_ >= 0
c292_1: -1.6048253375000004e7 W_Bharat_Biotech,(6,_6)_ - 1 Y_tilde_Bharat_Biotech,6_ + 1 N_Bharat_Biotech,(6,_6)_ >= -1.6048253375000004e7
c293_1: 0.13693750000000002 Q_OPV,Bharat_Biotech,(6,_7),1_ + 0.13419875 Q_OPV,Bharat_Biotech,(6,_7),2_ + 0.13009062500000002 Q_OPV,Bharat_Biotech,(6,_7),3_ + 1.3548888888888888 Q_Rotavirus,Bharat_Biotech,(6,_7),1_ + 1.327791111111111 Q_Rotavirus,Bharat_Biotech,(6,_7),2_ + 1.2871444444444442 Q_Rotavirus,Bharat_Biotech,(6,_7),3_ - 1 N_Bharat_Biotech,(6,_7)_ >= 0
c294_1: -3.2096506750000004e7 W_Bharat_Biotech,(6,_7)_ - 1 Y_tilde_Bharat_Biotech,6_ + 1 N_Bharat_Biotech,(6,_7)_ >= -3.2096506750000004e7
c295_1: 0.13693750000000002 Q_OPV,Bharat_Biotech,(6,_8),1_ + 0.13419875 Q_OPV,Bharat_Biotech,(6,_8),2_ + 0.13009062500000002 Q_OPV,Bharat_Biotech,(6,_8),3_ + 1.3548888888888888 Q_Rotavirus,Bharat_Biotech,(6,_8),1_ + 1.327791111111111 Q_Rotavirus,Bharat_Biotech,(6,_8),2_ + 1.2871444444444442 Q_Rotavirus,Bharat_Biotech,(6,_8),3_ - 1 N_Bharat_Biotech,(6,_8)_ >= 0
c296_1: -4.814476012500001e7 W_Bharat_Biotech,(6,_8)_ - 1 Y_tilde_Bharat_Biotech,6_ + 1 N_Bharat_Biotech,(6,_8)_ >= -4.814476012500001e7
c297_1: 0.13693750000000002 Q_OPV,Bharat_Biotech,(6,_9),1_ + 0.13419875 Q_OPV,Bharat_Biotech,(6,_9),2_ + 0.13009062500000002 Q_OPV,Bharat_Biotech,(6,_9),3_ + 1.3548888888888888 Q_Rotavirus,Bharat_Biotech,(6,_9),1_ + 1.327791111111111 Q_Rotavirus,Bharat_Biotech,(6,_9),2_ + 1.2871444444444442 Q_Rotavirus,Bharat_Biotech,(6,_9),3_ - 1 N_Bharat_Biotech,(6,_9)_ >= 0
c298_1: -6.419301350000001e7 W_Bharat_Biotech,(6,_9)_ - 1 Y_tilde_Bharat_Biotech,6_ + 1 N_Bharat_Biotech,(6,_9)_ >= -6.419301350000001e7
c299_1: 0.13693750000000002 Q_OPV,Bharat_Biotech,(6,_10),1_ + 0.13419875 Q_OPV,Bharat_Biotech,(6,_10),2_ + 0.13009062500000002 Q_OPV,Bharat_Biotech,(6,_10),3_ + 1.3548888888888888 Q_Rotavirus,Bharat_Biotech,(6,_10),1_ + 1.327791111111111 Q_Rotavirus,Bharat_Biotech,(6,_10),2_ + 1.2871444444444442 Q_Rotavirus,Bharat_Biotech,(6,_10),3_ - 1 N_Bharat_Biotech,(6,_10)_ >= 0
c300_1: -8.024126687500001e7 W_Bharat_Biotech,(6,_10)_ - 1 Y_tilde_Bharat_Biotech,6_ + 1 N_Bharat_Biotech,(6,_10)_ >= -8.024126687500001e7
c301_1: 0.13693750000000002 Q_OPV,Bharat_Biotech,(7,_7),1_ + 0.13419875 Q_OPV,Bharat_Biotech,(7,_7),2_ + 0.13009062500000002 Q_OPV,Bharat_Biotech,(7,_7),3_ + 1.3549595555555554 Q_Rotavirus,Bharat_Biotech,(7,_7),1_ + 1.3278603644444442 Q_Rotavirus,Bharat_Biotech,(7,_7),2_ + 1.2872115777777775 Q_Rotavirus,Bharat_Biotech,(7,_7),3_ - 1 N_Bharat_Biotech,(7,_7)_ >= 0
c302_1: -1.6048253375000004e7 W_Bharat_Biotech,(7,_7)_ - 1 Y_tilde_Bharat_Biotech,7_ + 1 N_Bharat_Biotech,(7,_7)_ >= -1.6048253375000004e7
c303_1: 0.13693750000000002 Q_OPV,Bharat_Biotech,(7,_8),1_ + 0.13419875 Q_OPV,Bharat_Biotech,(7,_8),2_ + 0.13009062500000002 Q_OPV,Bharat_Biotech,(7,_8),3_ + 1.3549595555555554 Q_Rotavirus,Bharat_Biotech,(7,_8),1_ + 1.3278603644444442 Q_Rotavirus,Bharat_Biotech,(7,_8),2_ + 1.2872115777777775 Q_Rotavirus,Bharat_Biotech,(7,_8),3_ - 1 N_Bharat_Biotech,(7,_8)_ >= 0
c304_1: -3.2096506750000004e7 W_Bharat_Biotech,(7,_8)_ - 1 Y_tilde_Bharat_Biotech,7_ + 1 N_Bharat_Biotech,(7,_8)_ >= -3.2096506750000004e7
c305_1: 0.13693750000000002 Q_OPV,Bharat_Biotech,(7,_9),1_ + 0.13419875 Q_OPV,Bharat_Biotech,(7,_9),2_ + 0.13009062500000002 Q_OPV,Bharat_Biotech,(7,_9),3_ + 1.3549595555555554 Q_Rotavirus,Bharat_Biotech,(7,_9),1_ + 1.3278603644444442 Q_Rotavirus,Bharat_Biotech,(7,_9),2_ + 1.2872115777777775 Q_Rotavirus,Bharat_Biotech,(7,_9),3_ - 1 N_Bharat_Biotech,(7,_9)_ >= 0
c306_1: -4.814476012500001e7 W_Bharat_Biotech,(7,_9)_ - 1 Y_tilde_Bharat_Biotech,7_ + 1 N_Bharat_Biotech,(7,_9)_ >= -4.814476012500001e7
c307_1: 0.13693750000000002 Q_OPV,Bharat_Biotech,(7,_10),1_ + 0.13419875 Q_OPV,Bharat_Biotech,(7,_10),2_ + 0.13009062500000002 Q_OPV,Bharat_Biotech,(7,_10),3_ + 1.3549595555555554 Q_Rotavirus,Bharat_Biotech,(7,_10),1_ + 1.3278603644444442 Q_Rotavirus,Bharat_Biotech,(7,_10),2_ + 1.2872115777777775 Q_Rotavirus,Bharat_Biotech,(7,_10),3_ - 1 N_Bharat_Biotech,(7,_10)_ >= 0
c308_1: -6.419301350000001e7 W_Bharat_Biotech,(7,_10)_ - 1 Y_tilde_Bharat_Biotech,7_ + 1 N_Bharat_Biotech,(7,_10)_ >= -6.419301350000001e7
c309_1: 0.13693750000000002 Q_OPV,Bharat_Biotech,(8,_8),1_ + 0.13419875 Q_OPV,Bharat_Biotech,(8,_8),2_ + 0.13009062500000002 Q_OPV,Bharat_Biotech,(8,_8),3_ + 1.3672171111111109 Q_Rotavirus,Bharat_Biotech,(8,_8),1_ + 1.3398727688888887 Q_Rotavirus,Bharat_Biotech,(8,_8),2_ + 1.2988562555555552 Q_Rotavirus,Bharat_Biotech,(8,_8),3_ - 1 N_Bharat_Biotech,(8,_8)_ >= 0
c310_1: -1.6048253375000004e7 W_Bharat_Biotech,(8,_8)_ - 1 Y_tilde_Bharat_Biotech,8_ + 1 N_Bharat_Biotech,(8,_8)_ >= -1.6048253375000004e7
c311_1: 0.13693750000000002 Q_OPV,Bharat_Biotech,(8,_9),1_ + 0.13419875 Q_OPV,Bharat_Biotech,(8,_9),2_ + 0.13009062500000002 Q_OPV,Bharat_Biotech,(8,_9),3_ + 1.3672171111111109 Q_Rotavirus,Bharat_Biotech,(8,_9),1_ + 1.3398727688888887 Q_Rotavirus,Bharat_Biotech,(8,_9),2_ + 1.2988562555555552 Q_Rotavirus,Bharat_Biotech,(8,_9),3_ - 1 N_Bharat_Biotech,(8,_9)_ >= 0
c312_1: -3.2096506750000004e7 W_Bharat_Biotech,(8,_9)_ - 1 Y_tilde_Bharat_Biotech,8_ + 1 N_Bharat_Biotech,(8,_9)_ >= -3.2096506750000004e7
c313_1: 0.13693750000000002 Q_OPV,Bharat_Biotech,(8,_10),1_ + 0.13419875 Q_OPV,Bharat_Biotech,(8,_10),2_ + 0.13009062500000002 Q_OPV,Bharat_Biotech,(8,_10),3_ + 1.3672171111111109 Q_Rotavirus,Bharat_Biotech,(8,_10),1_ + 1.3398727688888887 Q_Rotavirus,Bharat_Biotech,(8,_10),2_ + 1.2988562555555552 Q_Rotavirus,Bharat_Biotech,(8,_10),3_ - 1 N_Bharat_Biotech,(8,_10)_ >= 0
c314_1: -4.814476012500001e7 W_Bharat_Biotech,(8,_10)_ - 1 Y_tilde_Bharat_Biotech,8_ + 1 N_Bharat_Biotech,(8,_10)_ >= -4.814476012500001e7
c315_1: 0.13693750000000002 Q_OPV,Bharat_Biotech,(9,_9),1_ + 0.13419875 Q_OPV,Bharat_Biotech,(9,_9),2_ + 0.13009062500000002 Q_OPV,Bharat_Biotech,(9,_9),3_ + 1.3610883333333332 Q_Rotavirus,Bharat_Biotech,(9,_9),1_ + 1.3338665666666665 Q_Rotavirus,Bharat_Biotech,(9,_9),2_ + 1.2930339166666664 Q_Rotavirus,Bharat_Biotech,(9,_9),3_ - 1 N_Bharat_Biotech,(9,_9)_ >= 0
c316_1: -1.6048253375000004e7 W_Bharat_Biotech,(9,_9)_ - 1 Y_tilde_Bharat_Biotech,9_ + 1 N_Bharat_Biotech,(9,_9)_ >= -1.6048253375000004e7
c317_1: 0.13693750000000002 Q_OPV,Bharat_Biotech,(9,_10),1_ + 0.13419875 Q_OPV,Bharat_Biotech,(9,_10),2_ + 0.13009062500000002 Q_OPV,Bharat_Biotech,(9,_10),3_ + 1.3610883333333332 Q_Rotavirus,Bharat_Biotech,(9,_10),1_ + 1.3338665666666665 Q_Rotavirus,Bharat_Biotech,(9,_10),2_ + 1.2930339166666664 Q_Rotavirus,Bharat_Biotech,(9,_10),3_ - 1 N_Bharat_Biotech,(9,_10)_ >= 0
c318_1: -3.2096506750000004e7 W_Bharat_Biotech,(9,_10)_ - 1 Y_tilde_Bharat_Biotech,9_ + 1 N_Bharat_Biotech,(9,_10)_ >= -3.2096506750000004e7
c319_1: 0.13693750000000002 Q_OPV,Bharat_Biotech,(10,_10),1_ + 0.13419875 Q_OPV,Bharat_Biotech,(10,_10),2_ + 0.13009062500000002 Q_OPV,Bharat_Biotech,(10,_10),3_ + 1.3641527222222223 Q_Rotavirus,Bharat_Biotech,(10,_10),1_ + 1.3368696677777778 Q_Rotavirus,Bharat_Biotech,(10,_10),2_ + 1.295945086111111 Q_Rotavirus,Bharat_Biotech,(10,_10),3_ - 1 N_Bharat_Biotech,(10,_10)_ >= 0
c320_1: -1.6048253375000004e7 W_Bharat_Biotech,(10,_10)_ - 1 Y_tilde_Bharat_Biotech,10_ + 1 N_Bharat_Biotech,(10,_10)_ >= -1.6048253375000004e7
c321_1: 2.262625 Q_IPV,Bilthoven,(1,_1),1_ + 2.2173724999999997 Q_IPV,Bilthoven,(1,_1),2_ + 2.14949375 Q_IPV,Bilthoven,(1,_1),3_ - 1 N_Bilthoven,(1,_1)_ >= 0
c322_1: -9.463826166666666e6 W_Bilthoven,(1,_1)_ - 1 Y_tilde_Bilthoven,1_ + 1 N_Bilthoven,(1,_1)_ >= -9.463826166666666e6
c323_1: 2.262625 Q_IPV,Bilthoven,(1,_2),1_ + 2.2173724999999997 Q_IPV,Bilthoven,(1,_2),2_ + 2.14949375 Q_IPV,Bilthoven,(1,_2),3_ - 1 N_Bilthoven,(1,_2)_ >= 0
c324_1: -1.8927652333333332e7 W_Bilthoven,(1,_2)_ - 1 Y_tilde_Bilthoven,1_ + 1 N_Bilthoven,(1,_2)_ >= -1.8927652333333332e7
c325_1: 2.262625 Q_IPV,Bilthoven,(1,_3),1_ + 2.2173724999999997 Q_IPV,Bilthoven,(1,_3),2_ + 2.14949375 Q_IPV,Bilthoven,(1,_3),3_ - 1 N_Bilthoven,(1,_3)_ >= 0
c326_1: -2.83914785e7 W_Bilthoven,(1,_3)_ - 1 Y_tilde_Bilthoven,1_ + 1 N_Bilthoven,(1,_3)_ >= -2.83914785e7
c327_1: 2.262625 Q_IPV,Bilthoven,(1,_4),1_ + 2.2173724999999997 Q_IPV,Bilthoven,(1,_4),2_ + 2.14949375 Q_IPV,Bilthoven,(1,_4),3_ - 1 N_Bilthoven,(1,_4)_ >= 0
c328_1: -3.7855304666666664e7 W_Bilthoven,(1,_4)_ - 1 Y_tilde_Bilthoven,1_ + 1 N_Bilthoven,(1,_4)_ >= -3.7855304666666664e7
c329_1: 2.262625 Q_IPV,Bilthoven,(1,_5),1_ + 2.2173724999999997 Q_IPV,Bilthoven,(1,_5),2_ + 2.14949375 Q_IPV,Bilthoven,(1,_5),3_ - 1 N_Bilthoven,(1,_5)_ >= 0
c330_1: -4.731913083333333e7 W_Bilthoven,(1,_5)_ - 1 Y_tilde_Bilthoven,1_ + 1 N_Bilthoven,(1,_5)_ >= -4.731913083333333e7
c331_1: 1.987625 Q_IPV,Bilthoven,(2,_2),1_ + 1.9478725 Q_IPV,Bilthoven,(2,_2),2_ + 1.88824375 Q_IPV,Bilthoven,(2,_2),3_ - 1 N_Bilthoven,(2,_2)_ >= 0
c332_1: -9.463826166666666e6 W_Bilthoven,(2,_2)_ - 1 Y_tilde_Bilthoven,2_ + 1 N_Bilthoven,(2,_2)_ >= -9.463826166666666e6
c333_1: 1.987625 Q_IPV,Bilthoven,(2,_3),1_ + 1.9478725 Q_IPV,Bilthoven,(2,_3),2_ + 1.88824375 Q_IPV,Bilthoven,(2,_3),3_ - 1 N_Bilthoven,(2,_3)_ >= 0
c334_1: -1.8927652333333332e7 W_Bilthoven,(2,_3)_ - 1 Y_tilde_Bilthoven,2_ + 1 N_Bilthoven,(2,_3)_ >= -1.8927652333333332e7
c335_1: 1.987625 Q_IPV,Bilthoven,(2,_4),1_ + 1.9478725 Q_IPV,Bilthoven,(2,_4),2_ + 1.88824375 Q_IPV,Bilthoven,(2,_4),3_ - 1 N_Bilthoven,(2,_4)_ >= 0
c336_1: -2.83914785e7 W_Bilthoven,(2,_4)_ - 1 Y_tilde_Bilthoven,2_ + 1 N_Bilthoven,(2,_4)_ >= -2.83914785e7
c337_1: 1.987625 Q_IPV,Bilthoven,(2,_5),1_ + 1.9478725 Q_IPV,Bilthoven,(2,_5),2_ + 1.88824375 Q_IPV,Bilthoven,(2,_5),3_ - 1 N_Bilthoven,(2,_5)_ >= 0
c338_1: -3.7855304666666664e7 W_Bilthoven,(2,_5)_ - 1 Y_tilde_Bilthoven,2_ + 1 N_Bilthoven,(2,_5)_ >= -3.7855304666666664e7
c339_1: 1.987625 Q_IPV,Bilthoven,(2,_6),1_ + 1.9478725 Q_IPV,Bilthoven,(2,_6),2_ + 1.88824375 Q_IPV,Bilthoven,(2,_6),3_ - 1 N_Bilthoven,(2,_6)_ >= 0
c340_1: -4.731913083333333e7 W_Bilthoven,(2,_6)_ - 1 Y_tilde_Bilthoven,2_ + 1 N_Bilthoven,(2,_6)_ >= -4.731913083333333e7
c341_1: 1.812625 Q_IPV,Bilthoven,(3,_3),1_ + 1.7763725 Q_IPV,Bilthoven,(3,_3),2_ + 1.7219937499999998 Q_IPV,Bilthoven,(3,_3),3_ - 1 N_Bilthoven,(3,_3)_ >= 0
c342_1: -9.463826166666666e6 W_Bilthoven,(3,_3)_ - 1 Y_tilde_Bilthoven,3_ + 1 N_Bilthoven,(3,_3)_ >= -9.463826166666666e6
c343_1: 1.812625 Q_IPV,Bilthoven,(3,_4),1_ + 1.7763725 Q_IPV,Bilthoven,(3,_4),2_ + 1.7219937499999998 Q_IPV,Bilthoven,(3,_4),3_ - 1 N_Bilthoven,(3,_4)_ >= 0
c344_1: -1.8927652333333332e7 W_Bilthoven,(3,_4)_ - 1 Y_tilde_Bilthoven,3_ + 1 N_Bilthoven,(3,_4)_ >= -1.8927652333333332e7
c345_1: 1.812625 Q_IPV,Bilthoven,(3,_5),1_ + 1.7763725 Q_IPV,Bilthoven,(3,_5),2_ + 1.7219937499999998 Q_IPV,Bilthoven,(3,_5),3_ - 1 N_Bilthoven,(3,_5)_ >= 0
c346_1: -2.83914785e7 W_Bilthoven,(3,_5)_ - 1 Y_tilde_Bilthoven,3_ + 1 N_Bilthoven,(3,_5)_ >= -2.83914785e7
c347_1: 1.812625 Q_IPV,Bilthoven,(3,_6),1_ + 1.7763725 Q_IPV,Bilthoven,(3,_6),2_ + 1.7219937499999998 Q_IPV,Bilthoven,(3,_6),3_ - 1 N_Bilthoven,(3,_6)_ >= 0
c348_1: -3.7855304666666664e7 W_Bilthoven,(3,_6)_ - 1 Y_tilde_Bilthoven,3_ + 1 N_Bilthoven,(3,_6)_ >= -3.7855304666666664e7
c349_1: 1.812625 Q_IPV,Bilthoven,(3,_7),1_ + 1.7763725 Q_IPV,Bilthoven,(3,_7),2_ + 1.7219937499999998 Q_IPV,Bilthoven,(3,_7),3_ - 1 N_Bilthoven,(3,_7)_ >= 0
c350_1: -4.731913083333333e7 W_Bilthoven,(3,_7)_ - 1 Y_tilde_Bilthoven,3_ + 1 N_Bilthoven,(3,_7)_ >= -4.731913083333333e7
c351_1: 1.9208333333333334 Q_IPV,Bilthoven,(4,_4),1_ + 1.8824166666666666 Q_IPV,Bilthoven,(4,_4),2_ + 1.8247916666666666 Q_IPV,Bilthoven,(4,_4),3_ - 1 N_Bilthoven,(4,_4)_ >= 0
c352_1: -9.463826166666666e6 W_Bilthoven,(4,_4)_ - 1 Y_tilde_Bilthoven,4_ + 1 N_Bilthoven,(4,_4)_ >= -9.463826166666666e6
c353_1: 1.9208333333333334 Q_IPV,Bilthoven,(4,_5),1_ + 1.8824166666666666 Q_IPV,Bilthoven,(4,_5),2_ + 1.8247916666666666 Q_IPV,Bilthoven,(4,_5),3_ - 1 N_Bilthoven,(4,_5)_ >= 0
c354_1: -1.8927652333333332e7 W_Bilthoven,(4,_5)_ - 1 Y_tilde_Bilthoven,4_ + 1 N_Bilthoven,(4,_5)_ >= -1.8927652333333332e7
c355_1: 1.9208333333333334 Q_IPV,Bilthoven,(4,_6),1_ + 1.8824166666666666 Q_IPV,Bilthoven,(4,_6),2_ + 1.8247916666666666 Q_IPV,Bilthoven,(4,_6),3_ - 1 N_Bilthoven,(4,_6)_ >= 0
c356_1: -2.83914785e7 W_Bilthoven,(4,_6)_ - 1 Y_tilde_Bilthoven,4_ + 1 N_Bilthoven,(4,_6)_ >= -2.83914785e7
c357_1: 1.9208333333333334 Q_IPV,Bilthoven,(4,_7),1_ + 1.8824166666666666 Q_IPV,Bilthoven,(4,_7),2_ + 1.8247916666666666 Q_IPV,Bilthoven,(4,_7),3_ - 1 N_Bilthoven,(4,_7)_ >= 0
c358_1: -3.7855304666666664e7 W_Bilthoven,(4,_7)_ - 1 Y_tilde_Bilthoven,4_ + 1 N_Bilthoven,(4,_7)_ >= -3.7855304666666664e7
c359_1: 1.9208333333333334 Q_IPV,Bilthoven,(4,_8),1_ + 1.8824166666666666 Q_IPV,Bilthoven,(4,_8),2_ + 1.8247916666666666 Q_IPV,Bilthoven,(4,_8),3_ - 1 N_Bilthoven,(4,_8)_ >= 0
c360_1: -4.731913083333333e7 W_Bilthoven,(4,_8)_ - 1 Y_tilde_Bilthoven,4_ + 1 N_Bilthoven,(4,_8)_ >= -4.731913083333333e7
c361_1: 1.9208333333333334 Q_IPV,Bilthoven,(5,_5),1_ + 1.8824166666666666 Q_IPV,Bilthoven,(5,_5),2_ + 1.8247916666666666 Q_IPV,Bilthoven,(5,_5),3_ - 1 N_Bilthoven,(5,_5)_ >= 0
c362_1: -9.463826166666666e6 W_Bilthoven,(5,_5)_ - 1 Y_tilde_Bilthoven,5_ + 1 N_Bilthoven,(5,_5)_ >= -9.463826166666666e6
c363_1: 1.9208333333333334 Q_IPV,Bilthoven,(5,_6),1_ + 1.8824166666666666 Q_IPV,Bilthoven,(5,_6),2_ + 1.8247916666666666 Q_IPV,Bilthoven,(5,_6),3_ - 1 N_Bilthoven,(5,_6)_ >= 0
c364_1: -1.8927652333333332e7 W_Bilthoven,(5,_6)_ - 1 Y_tilde_Bilthoven,5_ + 1 N_Bilthoven,(5,_6)_ >= -1.8927652333333332e7
c365_1: 1.9208333333333334 Q_IPV,Bilthoven,(5,_7),1_ + 1.8824166666666666 Q_IPV,Bilthoven,(5,_7),2_ + 1.8247916666666666 Q_IPV,Bilthoven,(5,_7),3_ - 1 N_Bilthoven,(5,_7)_ >= 0
c366_1: -2.83914785e7 W_Bilthoven,(5,_7)_ - 1 Y_tilde_Bilthoven,5_ + 1 N_Bilthoven,(5,_7)_ >= -2.83914785e7
c367_1: 1.9208333333333334 Q_IPV,Bilthoven,(5,_8),1_ + 1.8824166666666666 Q_IPV,Bilthoven,(5,_8),2_ + 1.8247916666666666 Q_IPV,Bilthoven,(5,_8),3_ - 1 N_Bilthoven,(5,_8)_ >= 0
c368_1: -3.7855304666666664e7 W_Bilthoven,(5,_8)_ - 1 Y_tilde_Bilthoven,5_ + 1 N_Bilthoven,(5,_8)_ >= -3.7855304666666664e7
c369_1: 1.9208333333333334 Q_IPV,Bilthoven,(5,_9),1_ + 1.8824166666666666 Q_IPV,Bilthoven,(5,_9),2_ + 1.8247916666666666 Q_IPV,Bilthoven,(5,_9),3_ - 1 N_Bilthoven,(5,_9)_ >= 0
c370_1: -4.731913083333333e7 W_Bilthoven,(5,_9)_ - 1 Y_tilde_Bilthoven,5_ + 1 N_Bilthoven,(5,_9)_ >= -4.731913083333333e7
c371_1: 1.9208333333333334 Q_IPV,Bilthoven,(6,_6),1_ + 1.8824166666666666 Q_IPV,Bilthoven,(6,_6),2_ + 1.8247916666666666 Q_IPV,Bilthoven,(6,_6),3_ - 1 N_Bilthoven,(6,_6)_ >= 0
c372_1: -9.463826166666666e6 W_Bilthoven,(6,_6)_ - 1 Y_tilde_Bilthoven,6_ + 1 N_Bilthoven,(6,_6)_ >= -9.463826166666666e6
c373_1: 1.9208333333333334 Q_IPV,Bilthoven,(6,_7),1_ + 1.8824166666666666 Q_IPV,Bilthoven,(6,_7),2_ + 1.8247916666666666 Q_IPV,Bilthoven,(6,_7),3_ - 1 N_Bilthoven,(6,_7)_ >= 0
c374_1: -1.8927652333333332e7 W_Bilthoven,(6,_7)_ - 1 Y_tilde_Bilthoven,6_ + 1 N_Bilthoven,(6,_7)_ >= -1.8927652333333332e7
c375_1: 1.9208333333333334 Q_IPV,Bilthoven,(6,_8),1_ + 1.8824166666666666 Q_IPV,Bilthoven,(6,_8),2_ + 1.8247916666666666 Q_IPV,Bilthoven,(6,_8),3_ - 1 N_Bilthoven,(6,_8)_ >= 0
c376_1: -2.83914785e7 W_Bilthoven,(6,_8)_ - 1 Y_tilde_Bilthoven,6_ + 1 N_Bilthoven,(6,_8)_ >= -2.83914785e7
c377_1: 1.9208333333333334 Q_IPV,Bilthoven,(6,_9),1_ + 1.8824166666666666 Q_IPV,Bilthoven,(6,_9),2_ + 1.8247916666666666 Q_IPV,Bilthoven,(6,_9),3_ - 1 N_Bilthoven,(6,_9)_ >= 0
c378_1: -3.7855304666666664e7 W_Bilthoven,(6,_9)_ - 1 Y_tilde_Bilthoven,6_ + 1 N_Bilthoven,(6,_9)_ >= -3.7855304666666664e7
c379_1: 1.9208333333333334 Q_IPV,Bilthoven,(6,_10),1_ + 1.8824166666666666 Q_IPV,Bilthoven,(6,_10),2_ + 1.8247916666666666 Q_IPV,Bilthoven,(6,_10),3_ - 1 N_Bilthoven,(6,_10)_ >= 0
c380_1: -4.731913083333333e7 W_Bilthoven,(6,_10)_ - 1 Y_tilde_Bilthoven,6_ + 1 N_Bilthoven,(6,_10)_ >= -4.731913083333333e7
c381_1: 1.9208333333333334 Q_IPV,Bilthoven,(7,_7),1_ + 1.8824166666666666 Q_IPV,Bilthoven,(7,_7),2_ + 1.8247916666666666 Q_IPV,Bilthoven,(7,_7),3_ - 1 N_Bilthoven,(7,_7)_ >= 0
c382_1: -9.463826166666666e6 W_Bilthoven,(7,_7)_ - 1 Y_tilde_Bilthoven,7_ + 1 N_Bilthoven,(7,_7)_ >= -9.463826166666666e6
c383_1: 1.9208333333333334 Q_IPV,Bilthoven,(7,_8),1_ + 1.8824166666666666 Q_IPV,Bilthoven,(7,_8),2_ + 1.8247916666666666 Q_IPV,Bilthoven,(7,_8),3_ - 1 N_Bilthoven,(7,_8)_ >= 0
c384_1: -1.8927652333333332e7 W_Bilthoven,(7,_8)_ - 1 Y_tilde_Bilthoven,7_ + 1 N_Bilthoven,(7,_8)_ >= -1.8927652333333332e7
c385_1: 1.9208333333333334 Q_IPV,Bilthoven,(7,_9),1_ + 1.8824166666666666 Q_IPV,Bilthoven,(7,_9),2_ + 1.8247916666666666 Q_IPV,Bilthoven,(7,_9),3_ - 1 N_Bilthoven,(7,_9)_ >= 0
c386_1: -2.83914785e7 W_Bilthoven,(7,_9)_ - 1 Y_tilde_Bilthoven,7_ + 1 N_Bilthoven,(7,_9)_ >= -2.83914785e7
c387_1: 1.9208333333333334 Q_IPV,Bilthoven,(7,_10),1_ + 1.8824166666666666 Q_IPV,Bilthoven,(7,_10),2_ + 1.8247916666666666 Q_IPV,Bilthoven,(7,_10),3_ - 1 N_Bilthoven,(7,_10)_ >= 0
c388_1: -3.7855304666666664e7 W_Bilthoven,(7,_10)_ - 1 Y_tilde_Bilthoven,7_ + 1 N_Bilthoven,(7,_10)_ >= -3.7855304666666664e7
c389_1: 1.9208333333333334 Q_IPV,Bilthoven,(8,_8),1_ + 1.8824166666666666 Q_IPV,Bilthoven,(8,_8),2_ + 1.8247916666666666 Q_IPV,Bilthoven,(8,_8),3_ - 1 N_Bilthoven,(8,_8)_ >= 0
c390_1: -9.463826166666666e6 W_Bilthoven,(8,_8)_ - 1 Y_tilde_Bilthoven,8_ + 1 N_Bilthoven,(8,_8)_ >= -9.463826166666666e6
c391_1: 1.9208333333333334 Q_IPV,Bilthoven,(8,_9),1_ + 1.8824166666666666 Q_IPV,Bilthoven,(8,_9),2_ + 1.8247916666666666 Q_IPV,Bilthoven,(8,_9),3_ - 1 N_Bilthoven,(8,_9)_ >= 0
c392_1: -1.8927652333333332e7 W_Bilthoven,(8,_9)_ - 1 Y_tilde_Bilthoven,8_ + 1 N_Bilthoven,(8,_9)_ >= -1.8927652333333332e7
c393_1: 1.9208333333333334 Q_IPV,Bilthoven,(8,_10),1_ + 1.8824166666666666 Q_IPV,Bilthoven,(8,_10),2_ + 1.8247916666666666 Q_IPV,Bilthoven,(8,_10),3_ - 1 N_Bilthoven,(8,_10)_ >= 0
c394_1: -2.83914785e7 W_Bilthoven,(8,_10)_ - 1 Y_tilde_Bilthoven,8_ + 1 N_Bilthoven,(8,_10)_ >= -2.83914785e7
c395_1: 1.9208333333333334 Q_IPV,Bilthoven,(9,_9),1_ + 1.8824166666666666 Q_IPV,Bilthoven,(9,_9),2_ + 1.8247916666666666 Q_IPV,Bilthoven,(9,_9),3_ - 1 N_Bilthoven,(9,_9)_ >= 0
c396_1: -9.463826166666666e6 W_Bilthoven,(9,_9)_ - 1 Y_tilde_Bilthoven,9_ + 1 N_Bilthoven,(9,_9)_ >= -9.463826166666666e6
c397_1: 1.9208333333333334 Q_IPV,Bilthoven,(9,_10),1_ + 1.8824166666666666 Q_IPV,Bilthoven,(9,_10),2_ + 1.8247916666666666 Q_IPV,Bilthoven,(9,_10),3_ - 1 N_Bilthoven,(9,_10)_ >= 0
c398_1: -1.8927652333333332e7 W_Bilthoven,(9,_10)_ - 1 Y_tilde_Bilthoven,9_ + 1 N_Bilthoven,(9,_10)_ >= -1.8927652333333332e7
c399_1: 1.9208333333333334 Q_IPV,Bilthoven,(10,_10),1_ + 1.8824166666666666 Q_IPV,Bilthoven,(10,_10),2_ + 1.8247916666666666 Q_IPV,Bilthoven,(10,_10),3_ - 1 N_Bilthoven,(10,_10)_ >= 0
c400_1: -9.463826166666666e6 W_Bilthoven,(10,_10)_ - 1 Y_tilde_Bilthoven,10_ + 1 N_Bilthoven,(10,_10)_ >= -9.463826166666666e6
c401_1: 0.7555000000000001 Q_MR,Biological_E,(1,_1),1_ + 0.74039 Q_MR,Biological_E,(1,_1),2_ + 0.7177250000000001 Q_MR,Biological_E,(1,_1),3_ + 0.07700000000000001 Q_TT,Biological_E,(1,_1),1_ + 0.07546000000000001 Q_TT,Biological_E,(1,_1),2_ + 0.07315 Q_TT,Biological_E,(1,_1),3_ + 0.10092499999999999 Q_Td,Biological_E,(1,_1),1_ + 0.09890649999999998 Q_Td,Biological_E,(1,_1),2_ + 0.09587874999999998 Q_Td,Biological_E,(1,_1),3_ + 0.177 Q_DTwP,Biological_E,(1,_1),1_ + 0.17345999999999998 Q_DTwP,Biological_E,(1,_1),2_ + 0.16815 Q_DTwP,Biological_E,(1,_1),3_ + 0.9686999999999999 Q_Penta,Biological_E,(1,_1),1_ + 0.9493259999999999 Q_Penta,Biological_E,(1,_1),2_ + 0.9202649999999999 Q_Penta,Biological_E,(1,_1),3_ - 1 N_Biological_E,(1,_1)_ >= 0
c402_1: -2.9494754604218755e7 W_Biological_E,(1,_1)_ - 1 Y_tilde_Biological_E,1_ + 1 N_Biological_E,(1,_1)_ >= -2.9494754604218755e7
c403_1: 0.7555000000000001 Q_MR,Biological_E,(1,_2),1_ + 0.74039 Q_MR,Biological_E,(1,_2),2_ + 0.7177250000000001 Q_MR,Biological_E,(1,_2),3_ + 0.07700000000000001 Q_TT,Biological_E,(1,_2),1_ + 0.07546000000000001 Q_TT,Biological_E,(1,_2),2_ + 0.07315 Q_TT,Biological_E,(1,_2),3_ + 0.10092499999999999 Q_Td,Biological_E,(1,_2),1_ + 0.09890649999999998 Q_Td,Biological_E,(1,_2),2_ + 0.09587874999999998 Q_Td,Biological_E,(1,_2),3_ + 0.177 Q_DTwP,Biological_E,(1,_2),1_ + 0.17345999999999998 Q_DTwP,Biological_E,(1,_2),2_ + 0.16815 Q_DTwP,Biological_E,(1,_2),3_ + 0.9686999999999999 Q_Penta,Biological_E,(1,_2),1_ + 0.9493259999999999 Q_Penta,Biological_E,(1,_2),2_ + 0.9202649999999999 Q_Penta,Biological_E,(1,_2),3_ - 1 N_Biological_E,(1,_2)_ >= 0
c404_1: -5.898950920843751e7 W_Biological_E,(1,_2)_ - 1 Y_tilde_Biological_E,1_ + 1 N_Biological_E,(1,_2)_ >= -5.898950920843751e7
c405_1: 0.7555000000000001 Q_MR,Biological_E,(1,_3),1_ + 0.74039 Q_MR,Biological_E,(1,_3),2_ + 0.7177250000000001 Q_MR,Biological_E,(1,_3),3_ + 0.07700000000000001 Q_TT,Biological_E,(1,_3),1_ + 0.07546000000000001 Q_TT,Biological_E,(1,_3),2_ + 0.07315 Q_TT,Biological_E,(1,_3),3_ + 0.10092499999999999 Q_Td,Biological_E,(1,_3),1_ + 0.09890649999999998 Q_Td,Biological_E,(1,_3),2_ + 0.09587874999999998 Q_Td,Biological_E,(1,_3),3_ + 0.177 Q_DTwP,Biological_E,(1,_3),1_ + 0.17345999999999998 Q_DTwP,Biological_E,(1,_3),2_ + 0.16815 Q_DTwP,Biological_E,(1,_3),3_ + 0.9686999999999999 Q_Penta,Biological_E,(1,_3),1_ + 0.9493259999999999 Q_Penta,Biological_E,(1,_3),2_ + 0.9202649999999999 Q_Penta,Biological_E,(1,_3),3_ - 1 N_Biological_E,(1,_3)_ >= 0
c406_1: -8.848426381265627e7 W_Biological_E,(1,_3)_ - 1 Y_tilde_Biological_E,1_ + 1 N_Biological_E,(1,_3)_ >= -8.848426381265627e7
c407_1: 0.7555000000000001 Q_MR,Biological_E,(1,_4),1_ + 0.74039 Q_MR,Biological_E,(1,_4),2_ + 0.7177250000000001 Q_MR,Biological_E,(1,_4),3_ + 0.07700000000000001 Q_TT,Biological_E,(1,_4),1_ + 0.07546000000000001 Q_TT,Biological_E,(1,_4),2_ + 0.07315 Q_TT,Biological_E,(1,_4),3_ + 0.10092499999999999 Q_Td,Biological_E,(1,_4),1_ + 0.09890649999999998 Q_Td,Biological_E,(1,_4),2_ + 0.09587874999999998 Q_Td,Biological_E,(1,_4),3_ + 0.177 Q_DTwP,Biological_E,(1,_4),1_ + 0.17345999999999998 Q_DTwP,Biological_E,(1,_4),2_ + 0.16815 Q_DTwP,Biological_E,(1,_4),3_ + 0.9686999999999999 Q_Penta,Biological_E,(1,_4),1_ + 0.9493259999999999 Q_Penta,Biological_E,(1,_4),2_ + 0.9202649999999999 Q_Penta,Biological_E,(1,_4),3_ - 1 N_Biological_E,(1,_4)_ >= 0
c408_1: -1.1797901841687502e8 W_Biological_E,(1,_4)_ - 1 Y_tilde_Biological_E,1_ + 1 N_Biological_E,(1,_4)_ >= -1.1797901841687502e8
c409_1: 0.7555000000000001 Q_MR,Biological_E,(1,_5),1_ + 0.74039 Q_MR,Biological_E,(1,_5),2_ + 0.7177250000000001 Q_MR,Biological_E,(1,_5),3_ + 0.07700000000000001 Q_TT,Biological_E,(1,_5),1_ + 0.07546000000000001 Q_TT,Biological_E,(1,_5),2_ + 0.07315 Q_TT,Biological_E,(1,_5),3_ + 0.10092499999999999 Q_Td,Biological_E,(1,_5),1_ + 0.09890649999999998 Q_Td,Biological_E,(1,_5),2_ + 0.09587874999999998 Q_Td,Biological_E,(1,_5),3_ + 0.177 Q_DTwP,Biological_E,(1,_5),1_ + 0.17345999999999998 Q_DTwP,Biological_E,(1,_5),2_ + 0.16815 Q_DTwP,Biological_E,(1,_5),3_ + 0.9686999999999999 Q_Penta,Biological_E,(1,_5),1_ + 0.9493259999999999 Q_Penta,Biological_E,(1,_5),2_ + 0.9202649999999999 Q_Penta,Biological_E,(1,_5),3_ - 1 N_Biological_E,(1,_5)_ >= 0
c410_1: -1.474737730210938e8 W_Biological_E,(1,_5)_ - 1 Y_tilde_Biological_E,1_ + 1 N_Biological_E,(1,_5)_ >= -1.474737730210938e8
c411_1: 0.85575 Q_MR,Biological_E,(2,_2),1_ + 0.838635 Q_MR,Biological_E,(2,_2),2_ + 0.8129624999999999 Q_MR,Biological_E,(2,_2),3_ + 0.07762500000000001 Q_TT,Biological_E,(2,_2),1_ + 0.07607250000000002 Q_TT,Biological_E,(2,_2),2_ + 0.07374375000000001 Q_TT,Biological_E,(2,_2),3_ + 0.10217499999999999 Q_Td,Biological_E,(2,_2),1_ + 0.10013149999999998 Q_Td,Biological_E,(2,_2),2_ + 0.09706624999999998 Q_Td,Biological_E,(2,_2),3_ + 0.177 Q_DTwP,Biological_E,(2,_2),1_ + 0.17345999999999998 Q_DTwP,Biological_E,(2,_2),2_ + 0.16815 Q_DTwP,Biological_E,(2,_2),3_ + 0.9686999999999999 Q_Penta,Biological_E,(2,_2),1_ + 0.9493259999999999 Q_Penta,Biological_E,(2,_2),2_ + 0.9202649999999999 Q_Penta,Biological_E,(2,_2),3_ - 1 N_Biological_E,(2,_2)_ >= 0
c412_1: -2.9494754604218755e7 W_Biological_E,(2,_2)_ - 1 Y_tilde_Biological_E,2_ + 1 N_Biological_E,(2,_2)_ >= -2.9494754604218755e7
c413_1: 0.85575 Q_MR,Biological_E,(2,_3),1_ + 0.838635 Q_MR,Biological_E,(2,_3),2_ + 0.8129624999999999 Q_MR,Biological_E,(2,_3),3_ + 0.07762500000000001 Q_TT,Biological_E,(2,_3),1_ + 0.07607250000000002 Q_TT,Biological_E,(2,_3),2_ + 0.07374375000000001 Q_TT,Biological_E,(2,_3),3_ + 0.10217499999999999 Q_Td,Biological_E,(2,_3),1_ + 0.10013149999999998 Q_Td,Biological_E,(2,_3),2_ + 0.09706624999999998 Q_Td,Biological_E,(2,_3),3_ + 0.177 Q_DTwP,Biological_E,(2,_3),1_ + 0.17345999999999998 Q_DTwP,Biological_E,(2,_3),2_ + 0.16815 Q_DTwP,Biological_E,(2,_3),3_ + 0.9686999999999999 Q_Penta,Biological_E,(2,_3),1_ + 0.9493259999999999 Q_Penta,Biological_E,(2,_3),2_ + 0.9202649999999999 Q_Penta,Biological_E,(2,_3),3_ - 1 N_Biological_E,(2,_3)_ >= 0
c414_1: -5.898950920843751e7 W_Biological_E,(2,_3)_ - 1 Y_tilde_Biological_E,2_ + 1 N_Biological_E,(2,_3)_ >= -5.898950920843751e7
c415_1: 0.85575 Q_MR,Biological_E,(2,_4),1_ + 0.838635 Q_MR,Biological_E,(2,_4),2_ + 0.8129624999999999 Q_MR,Biological_E,(2,_4),3_ + 0.07762500000000001 Q_TT,Biological_E,(2,_4),1_ + 0.07607250000000002 Q_TT,Biological_E,(2,_4),2_ + 0.07374375000000001 Q_TT,Biological_E,(2,_4),3_ + 0.10217499999999999 Q_Td,Biological_E,(2,_4),1_ + 0.10013149999999998 Q_Td,Biological_E,(2,_4),2_ + 0.09706624999999998 Q_Td,Biological_E,(2,_4),3_ + 0.177 Q_DTwP,Biological_E,(2,_4),1_ + 0.17345999999999998 Q_DTwP,Biological_E,(2,_4),2_ + 0.16815 Q_DTwP,Biological_E,(2,_4),3_ + 0.9686999999999999 Q_Penta,Biological_E,(2,_4),1_ + 0.9493259999999999 Q_Penta,Biological_E,(2,_4),2_ + 0.9202649999999999 Q_Penta,Biological_E,(2,_4),3_ - 1 N_Biological_E,(2,_4)_ >= 0
c416_1: -8.848426381265627e7 W_Biological_E,(2,_4)_ - 1 Y_tilde_Biological_E,2_ + 1 N_Biological_E,(2,_4)_ >= -8.848426381265627e7
c417_1: 0.85575 Q_MR,Biological_E,(2,_5),1_ + 0.838635 Q_MR,Biological_E,(2,_5),2_ + 0.8129624999999999 Q_MR,Biological_E,(2,_5),3_ + 0.07762500000000001 Q_TT,Biological_E,(2,_5),1_ + 0.07607250000000002 Q_TT,Biological_E,(2,_5),2_ + 0.07374375000000001 Q_TT,Biological_E,(2,_5),3_ + 0.10217499999999999 Q_Td,Biological_E,(2,_5),1_ + 0.10013149999999998 Q_Td,Biological_E,(2,_5),2_ + 0.09706624999999998 Q_Td,Biological_E,(2,_5),3_ + 0.177 Q_DTwP,Biological_E,(2,_5),1_ + 0.17345999999999998 Q_DTwP,Biological_E,(2,_5),2_ + 0.16815 Q_DTwP,Biological_E,(2,_5),3_ + 0.9686999999999999 Q_Penta,Biological_E,(2,_5),1_ + 0.9493259999999999 Q_Penta,Biological_E,(2,_5),2_ + 0.9202649999999999 Q_Penta,Biological_E,(2,_5),3_ - 1 N_Biological_E,(2,_5)_ >= 0
c418_1: -1.1797901841687502e8 W_Biological_E,(2,_5)_ - 1 Y_tilde_Biological_E,2_ + 1 N_Biological_E,(2,_5)_ >= -1.1797901841687502e8
c419_1: 0.85575 Q_MR,Biological_E,(2,_6),1_ + 0.838635 Q_MR,Biological_E,(2,_6),2_ + 0.8129624999999999 Q_MR,Biological_E,(2,_6),3_ + 0.07762500000000001 Q_TT,Biological_E,(2,_6),1_ + 0.07607250000000002 Q_TT,Biological_E,(2,_6),2_ + 0.07374375000000001 Q_TT,Biological_E,(2,_6),3_ + 0.10217499999999999 Q_Td,Biological_E,(2,_6),1_ + 0.10013149999999998 Q_Td,Biological_E,(2,_6),2_ + 0.09706624999999998 Q_Td,Biological_E,(2,_6),3_ + 0.177 Q_DTwP,Biological_E,(2,_6),1_ + 0.17345999999999998 Q_DTwP,Biological_E,(2,_6),2_ + 0.16815 Q_DTwP,Biological_E,(2,_6),3_ + 0.9686999999999999 Q_Penta,Biological_E,(2,_6),1_ + 0.9493259999999999 Q_Penta,Biological_E,(2,_6),2_ + 0.9202649999999999 Q_Penta,Biological_E,(2,_6),3_ - 1 N_Biological_E,(2,_6)_ >= 0
c420_1: -1.474737730210938e8 W_Biological_E,(2,_6)_ - 1 Y_tilde_Biological_E,2_ + 1 N_Biological_E,(2,_6)_ >= -1.474737730210938e8
c421_1: 0.88 Q_MR,Biological_E,(3,_3),1_ + 0.8623999999999999 Q_MR,Biological_E,(3,_3),2_ + 0.836 Q_MR,Biological_E,(3,_3),3_ + 0.07743749999999999 Q_TT,Biological_E,(3,_3),1_ + 0.07588874999999999 Q_TT,Biological_E,(3,_3),2_ + 0.073565625 Q_TT,Biological_E,(3,_3),3_ + 0.11737500000000001 Q_Td,Biological_E,(3,_3),1_ + 0.1150275 Q_Td,Biological_E,(3,_3),2_ + 0.11150625 Q_Td,Biological_E,(3,_3),3_ + 0.177 Q_DTwP,Biological_E,(3,_3),1_ + 0.17345999999999998 Q_DTwP,Biological_E,(3,_3),2_ + 0.16815 Q_DTwP,Biological_E,(3,_3),3_ + 0.9880000000000001 Q_Penta,Biological_E,(3,_3),1_ + 0.9682400000000001 Q_Penta,Biological_E,(3,_3),2_ + 0.9386000000000001 Q_Penta,Biological_E,(3,_3),3_ - 1 N_Biological_E,(3,_3)_ >= 0
c422_1: -2.9494754604218755e7 W_Biological_E,(3,_3)_ - 1 Y_tilde_Biological_E,3_ + 1 N_Biological_E,(3,_3)_ >= -2.9494754604218755e7
c423_1: 0.88 Q_MR,Biological_E,(3,_4),1_ + 0.8623999999999999 Q_MR,Biological_E,(3,_4),2_ + 0.836 Q_MR,Biological_E,(3,_4),3_ + 0.07743749999999999 Q_TT,Biological_E,(3,_4),1_ + 0.07588874999999999 Q_TT,Biological_E,(3,_4),2_ + 0.073565625 Q_TT,Biological_E,(3,_4),3_ + 0.11737500000000001 Q_Td,Biological_E,(3,_4),1_ + 0.1150275 Q_Td,Biological_E,(3,_4),2_ + 0.11150625 Q_Td,Biological_E,(3,_4),3_ + 0.177 Q_DTwP,Biological_E,(3,_4),1_ + 0.17345999999999998 Q_DTwP,Biological_E,(3,_4),2_ + 0.16815 Q_DTwP,Biological_E,(3,_4),3_ + 0.9880000000000001 Q_Penta,Biological_E,(3,_4),1_ + 0.9682400000000001 Q_Penta,Biological_E,(3,_4),2_ + 0.9386000000000001 Q_Penta,Biological_E,(3,_4),3_ - 1 N_Biological_E,(3,_4)_ >= 0
c424_1: -5.898950920843751e7 W_Biological_E,(3,_4)_ - 1 Y_tilde_Biological_E,3_ + 1 N_Biological_E,(3,_4)_ >= -5.898950920843751e7
c425_1: 0.88 Q_MR,Biological_E,(3,_5),1_ + 0.8623999999999999 Q_MR,Biological_E,(3,_5),2_ + 0.836 Q_MR,Biological_E,(3,_5),3_ + 0.07743749999999999 Q_TT,Biological_E,(3,_5),1_ + 0.07588874999999999 Q_TT,Biological_E,(3,_5),2_ + 0.073565625 Q_TT,Biological_E,(3,_5),3_ + 0.11737500000000001 Q_Td,Biological_E,(3,_5),1_ + 0.1150275 Q_Td,Biological_E,(3,_5),2_ + 0.11150625 Q_Td,Biological_E,(3,_5),3_ + 0.177 Q_DTwP,Biological_E,(3,_5),1_ + 0.17345999999999998 Q_DTwP,Biological_E,(3,_5),2_ + 0.16815 Q_DTwP,Biological_E,(3,_5),3_ + 0.9880000000000001 Q_Penta,Biological_E,(3,_5),1_ + 0.9682400000000001 Q_Penta,Biological_E,(3,_5),2_ + 0.9386000000000001 Q_Penta,Biological_E,(3,_5),3_ - 1 N_Biological_E,(3,_5)_ >= 0
c426_1: -8.848426381265627e7 W_Biological_E,(3,_5)_ - 1 Y_tilde_Biological_E,3_ + 1 N_Biological_E,(3,_5)_ >= -8.848426381265627e7
c427_1: 0.88 Q_MR,Biological_E,(3,_6),1_ + 0.8623999999999999 Q_MR,Biological_E,(3,_6),2_ + 0.836 Q_MR,Biological_E,(3,_6),3_ + 0.07743749999999999 Q_TT,Biological_E,(3,_6),1_ + 0.07588874999999999 Q_TT,Biological_E,(3,_6),2_ + 0.073565625 Q_TT,Biological_E,(3,_6),3_ + 0.11737500000000001 Q_Td,Biological_E,(3,_6),1_ + 0.1150275 Q_Td,Biological_E,(3,_6),2_ + 0.11150625 Q_Td,Biological_E,(3,_6),3_ + 0.177 Q_DTwP,Biological_E,(3,_6),1_ + 0.17345999999999998 Q_DTwP,Biological_E,(3,_6),2_ + 0.16815 Q_DTwP,Biological_E,(3,_6),3_ + 0.9880000000000001 Q_Penta,Biological_E,(3,_6),1_ + 0.9682400000000001 Q_Penta,Biological_E,(3,_6),2_ + 0.9386000000000001 Q_Penta,Biological_E,(3,_6),3_ - 1 N_Biological_E,(3,_6)_ >= 0
c428_1: -1.1797901841687502e8 W_Biological_E,(3,_6)_ - 1 Y_tilde_Biological_E,3_ + 1 N_Biological_E,(3,_6)_ >= -1.1797901841687502e8
c429_1: 0.88 Q_MR,Biological_E,(3,_7),1_ + 0.8623999999999999 Q_MR,Biological_E,(3,_7),2_ + 0.836 Q_MR,Biological_E,(3,_7),3_ + 0.07743749999999999 Q_TT,Biological_E,(3,_7),1_ + 0.07588874999999999 Q_TT,Biological_E,(3,_7),2_ + 0.073565625 Q_TT,Biological_E,(3,_7),3_ + 0.11737500000000001 Q_Td,Biological_E,(3,_7),1_ + 0.1150275 Q_Td,Biological_E,(3,_7),2_ + 0.11150625 Q_Td,Biological_E,(3,_7),3_ + 0.177 Q_DTwP,Biological_E,(3,_7),1_ + 0.17345999999999998 Q_DTwP,Biological_E,(3,_7),2_ + 0.16815 Q_DTwP,Biological_E,(3,_7),3_ + 0.9880000000000001 Q_Penta,Biological_E,(3,_7),1_ + 0.9682400000000001 Q_Penta,Biological_E,(3,_7),2_ + 0.9386000000000001 Q_Penta,Biological_E,(3,_7),3_ - 1 N_Biological_E,(3,_7)_ >= 0
c430_1: -1.474737730210938e8 W_Biological_E,(3,_7)_ - 1 Y_tilde_Biological_E,3_ + 1 N_Biological_E,(3,_7)_ >= -1.474737730210938e8
c431_1: 0.917875 Q_MR,Biological_E,(4,_4),1_ + 0.8995175 Q_MR,Biological_E,(4,_4),2_ + 0.8719812499999999 Q_MR,Biological_E,(4,_4),3_ + 0.08521875 Q_TT,Biological_E,(4,_4),1_ + 0.08351437499999999 Q_TT,Biological_E,(4,_4),2_ + 0.08095781249999999 Q_TT,Biological_E,(4,_4),3_ + 0.1257625 Q_Td,Biological_E,(4,_4),1_ + 0.12324725 Q_Td,Biological_E,(4,_4),2_ + 0.119474375 Q_Td,Biological_E,(4,_4),3_ + 0.177 Q_DTwP,Biological_E,(4,_4),1_ + 0.17345999999999998 Q_DTwP,Biological_E,(4,_4),2_ + 0.16815 Q_DTwP,Biological_E,(4,_4),3_ + 0.9880000000000001 Q_Penta,Biological_E,(4,_4),1_ + 0.9682400000000001 Q_Penta,Biological_E,(4,_4),2_ + 0.9386000000000001 Q_Penta,Biological_E,(4,_4),3_ - 1 N_Biological_E,(4,_4)_ >= 0
c432_1: -2.9494754604218755e7 W_Biological_E,(4,_4)_ - 1 Y_tilde_Biological_E,4_ + 1 N_Biological_E,(4,_4)_ >= -2.9494754604218755e7
c433_1: 0.917875 Q_MR,Biological_E,(4,_5),1_ + 0.8995175 Q_MR,Biological_E,(4,_5),2_ + 0.8719812499999999 Q_MR,Biological_E,(4,_5),3_ + 0.08521875 Q_TT,Biological_E,(4,_5),1_ + 0.08351437499999999 Q_TT,Biological_E,(4,_5),2_ + 0.08095781249999999 Q_TT,Biological_E,(4,_5),3_ + 0.1257625 Q_Td,Biological_E,(4,_5),1_ + 0.12324725 Q_Td,Biological_E,(4,_5),2_ + 0.119474375 Q_Td,Biological_E,(4,_5),3_ + 0.177 Q_DTwP,Biological_E,(4,_5),1_ + 0.17345999999999998 Q_DTwP,Biological_E,(4,_5),2_ + 0.16815 Q_DTwP,Biological_E,(4,_5),3_ + 0.9880000000000001 Q_Penta,Biological_E,(4,_5),1_ + 0.9682400000000001 Q_Penta,Biological_E,(4,_5),2_ + 0.9386000000000001 Q_Penta,Biological_E,(4,_5),3_ - 1 N_Biological_E,(4,_5)_ >= 0
c434_1: -5.898950920843751e7 W_Biological_E,(4,_5)_ - 1 Y_tilde_Biological_E,4_ + 1 N_Biological_E,(4,_5)_ >= -5.898950920843751e7
c435_1: 0.917875 Q_MR,Biological_E,(4,_6),1_ + 0.8995175 Q_MR,Biological_E,(4,_6),2_ + 0.8719812499999999 Q_MR,Biological_E,(4,_6),3_ + 0.08521875 Q_TT,Biological_E,(4,_6),1_ + 0.08351437499999999 Q_TT,Biological_E,(4,_6),2_ + 0.08095781249999999 Q_TT,Biological_E,(4,_6),3_ + 0.1257625 Q_Td,Biological_E,(4,_6),1_ + 0.12324725 Q_Td,Biological_E,(4,_6),2_ + 0.119474375 Q_Td,Biological_E,(4,_6),3_ + 0.177 Q_DTwP,Biological_E,(4,_6),1_ + 0.17345999999999998 Q_DTwP,Biological_E,(4,_6),2_ + 0.16815 Q_DTwP,Biological_E,(4,_6),3_ + 0.9880000000000001 Q_Penta,Biological_E,(4,_6),1_ + 0.9682400000000001 Q_Penta,Biological_E,(4,_6),2_ + 0.9386000000000001 Q_Penta,Biological_E,(4,_6),3_ - 1 N_Biological_E,(4,_6)_ >= 0
c436_1: -8.848426381265627e7 W_Biological_E,(4,_6)_ - 1 Y_tilde_Biological_E,4_ + 1 N_Biological_E,(4,_6)_ >= -8.848426381265627e7
c437_1: 0.917875 Q_MR,Biological_E,(4,_7),1_ + 0.8995175 Q_MR,Biological_E,(4,_7),2_ + 0.8719812499999999 Q_MR,Biological_E,(4,_7),3_ + 0.08521875 Q_TT,Biological_E,(4,_7),1_ + 0.08351437499999999 Q_TT,Biological_E,(4,_7),2_ + 0.08095781249999999 Q_TT,Biological_E,(4,_7),3_ + 0.1257625 Q_Td,Biological_E,(4,_7),1_ + 0.12324725 Q_Td,Biological_E,(4,_7),2_ + 0.119474375 Q_Td,Biological_E,(4,_7),3_ + 0.177 Q_DTwP,Biological_E,(4,_7),1_ + 0.17345999999999998 Q_DTwP,Biological_E,(4,_7),2_ + 0.16815 Q_DTwP,Biological_E,(4,_7),3_ + 0.9880000000000001 Q_Penta,Biological_E,(4,_7),1_ + 0.9682400000000001 Q_Penta,Biological_E,(4,_7),2_ + 0.9386000000000001 Q_Penta,Biological_E,(4,_7),3_ - 1 N_Biological_E,(4,_7)_ >= 0
c438_1: -1.1797901841687502e8 W_Biological_E,(4,_7)_ - 1 Y_tilde_Biological_E,4_ + 1 N_Biological_E,(4,_7)_ >= -1.1797901841687502e8
c439_1: 0.917875 Q_MR,Biological_E,(4,_8),1_ + 0.8995175 Q_MR,Biological_E,(4,_8),2_ + 0.8719812499999999 Q_MR,Biological_E,(4,_8),3_ + 0.08521875 Q_TT,Biological_E,(4,_8),1_ + 0.08351437499999999 Q_TT,Biological_E,(4,_8),2_ + 0.08095781249999999 Q_TT,Biological_E,(4,_8),3_ + 0.1257625 Q_Td,Biological_E,(4,_8),1_ + 0.12324725 Q_Td,Biological_E,(4,_8),2_ + 0.119474375 Q_Td,Biological_E,(4,_8),3_ + 0.177 Q_DTwP,Biological_E,(4,_8),1_ + 0.17345999999999998 Q_DTwP,Biological_E,(4,_8),2_ + 0.16815 Q_DTwP,Biological_E,(4,_8),3_ + 0.9880000000000001 Q_Penta,Biological_E,(4,_8),1_ + 0.9682400000000001 Q_Penta,Biological_E,(4,_8),2_ + 0.9386000000000001 Q_Penta,Biological_E,(4,_8),3_ - 1 N_Biological_E,(4,_8)_ >= 0
c440_1: -1.474737730210938e8 W_Biological_E,(4,_8)_ - 1 Y_tilde_Biological_E,4_ + 1 N_Biological_E,(4,_8)_ >= -1.474737730210938e8
c441_1: 0.8989375 Q_MR,Biological_E,(5,_5),1_ + 0.8809587499999999 Q_MR,Biological_E,(5,_5),2_ + 0.8539906249999999 Q_MR,Biological_E,(5,_5),3_ + 0.085140625 Q_TT,Biological_E,(5,_5),1_ + 0.0834378125 Q_TT,Biological_E,(5,_5),2_ + 0.08088359375 Q_TT,Biological_E,(5,_5),3_ + 0.1287 Q_Td,Biological_E,(5,_5),1_ + 0.12612600000000002 Q_Td,Biological_E,(5,_5),2_ + 0.122265 Q_Td,Biological_E,(5,_5),3_ + 0.177 Q_DTwP,Biological_E,(5,_5),1_ + 0.17345999999999998 Q_DTwP,Biological_E,(5,_5),2_ + 0.16815 Q_DTwP,Biological_E,(5,_5),3_ + 1.001 Q_Penta,Biological_E,(5,_5),1_ + 0.9809799999999999 Q_Penta,Biological_E,(5,_5),2_ + 0.9509499999999999 Q_Penta,Biological_E,(5,_5),3_ - 1 N_Biological_E,(5,_5)_ >= 0
c442_1: -2.9494754604218755e7 W_Biological_E,(5,_5)_ - 1 Y_tilde_Biological_E,5_ + 1 N_Biological_E,(5,_5)_ >= -2.9494754604218755e7
c443_1: 0.8989375 Q_MR,Biological_E,(5,_6),1_ + 0.8809587499999999 Q_MR,Biological_E,(5,_6),2_ + 0.8539906249999999 Q_MR,Biological_E,(5,_6),3_ + 0.085140625 Q_TT,Biological_E,(5,_6),1_ + 0.0834378125 Q_TT,Biological_E,(5,_6),2_ + 0.08088359375 Q_TT,Biological_E,(5,_6),3_ + 0.1287 Q_Td,Biological_E,(5,_6),1_ + 0.12612600000000002 Q_Td,Biological_E,(5,_6),2_ + 0.122265 Q_Td,Biological_E,(5,_6),3_ + 0.177 Q_DTwP,Biological_E,(5,_6),1_ + 0.17345999999999998 Q_DTwP,Biological_E,(5,_6),2_ + 0.16815 Q_DTwP,Biological_E,(5,_6),3_ + 1.001 Q_Penta,Biological_E,(5,_6),1_ + 0.9809799999999999 Q_Penta,Biological_E,(5,_6),2_ + 0.9509499999999999 Q_Penta,Biological_E,(5,_6),3_ - 1 N_Biological_E,(5,_6)_ >= 0
c444_1: -5.898950920843751e7 W_Biological_E,(5,_6)_ - 1 Y_tilde_Biological_E,5_ + 1 N_Biological_E,(5,_6)_ >= -5.898950920843751e7
c445_1: 0.8989375 Q_MR,Biological_E,(5,_7),1_ + 0.8809587499999999 Q_MR,Biological_E,(5,_7),2_ + 0.8539906249999999 Q_MR,Biological_E,(5,_7),3_ + 0.085140625 Q_TT,Biological_E,(5,_7),1_ + 0.0834378125 Q_TT,Biological_E,(5,_7),2_ + 0.08088359375 Q_TT,Biological_E,(5,_7),3_ + 0.1287 Q_Td,Biological_E,(5,_7),1_ + 0.12612600000000002 Q_Td,Biological_E,(5,_7),2_ + 0.122265 Q_Td,Biological_E,(5,_7),3_ + 0.177 Q_DTwP,Biological_E,(5,_7),1_ + 0.17345999999999998 Q_DTwP,Biological_E,(5,_7),2_ + 0.16815 Q_DTwP,Biological_E,(5,_7),3_ + 1.001 Q_Penta,Biological_E,(5,_7),1_ + 0.9809799999999999 Q_Penta,Biological_E,(5,_7),2_ + 0.9509499999999999 Q_Penta,Biological_E,(5,_7),3_ - 1 N_Biological_E,(5,_7)_ >= 0
c446_1: -8.848426381265627e7 W_Biological_E,(5,_7)_ - 1 Y_tilde_Biological_E,5_ + 1 N_Biological_E,(5,_7)_ >= -8.848426381265627e7
c447_1: 0.8989375 Q_MR,Biological_E,(5,_8),1_ + 0.8809587499999999 Q_MR,Biological_E,(5,_8),2_ + 0.8539906249999999 Q_MR,Biological_E,(5,_8),3_ + 0.085140625 Q_TT,Biological_E,(5,_8),1_ + 0.0834378125 Q_TT,Biological_E,(5,_8),2_ + 0.08088359375 Q_TT,Biological_E,(5,_8),3_ + 0.1287 Q_Td,Biological_E,(5,_8),1_ + 0.12612600000000002 Q_Td,Biological_E,(5,_8),2_ + 0.122265 Q_Td,Biological_E,(5,_8),3_ + 0.177 Q_DTwP,Biological_E,(5,_8),1_ + 0.17345999999999998 Q_DTwP,Biological_E,(5,_8),2_ + 0.16815 Q_DTwP,Biological_E,(5,_8),3_ + 1.001 Q_Penta,Biological_E,(5,_8),1_ + 0.9809799999999999 Q_Penta,Biological_E,(5,_8),2_ + 0.9509499999999999 Q_Penta,Biological_E,(5,_8),3_ - 1 N_Biological_E,(5,_8)_ >= 0
c448_1: -1.1797901841687502e8 W_Biological_E,(5,_8)_ - 1 Y_tilde_Biological_E,5_ + 1 N_Biological_E,(5,_8)_ >= -1.1797901841687502e8
c449_1: 0.8989375 Q_MR,Biological_E,(5,_9),1_ + 0.8809587499999999 Q_MR,Biological_E,(5,_9),2_ + 0.8539906249999999 Q_MR,Biological_E,(5,_9),3_ + 0.085140625 Q_TT,Biological_E,(5,_9),1_ + 0.0834378125 Q_TT,Biological_E,(5,_9),2_ + 0.08088359375 Q_TT,Biological_E,(5,_9),3_ + 0.1287 Q_Td,Biological_E,(5,_9),1_ + 0.12612600000000002 Q_Td,Biological_E,(5,_9),2_ + 0.122265 Q_Td,Biological_E,(5,_9),3_ + 0.177 Q_DTwP,Biological_E,(5,_9),1_ + 0.17345999999999998 Q_DTwP,Biological_E,(5,_9),2_ + 0.16815 Q_DTwP,Biological_E,(5,_9),3_ + 1.001 Q_Penta,Biological_E,(5,_9),1_ + 0.9809799999999999 Q_Penta,Biological_E,(5,_9),2_ + 0.9509499999999999 Q_Penta,Biological_E,(5,_9),3_ - 1 N_Biological_E,(5,_9)_ >= 0
c450_1: -1.474737730210938e8 W_Biological_E,(5,_9)_ - 1 Y_tilde_Biological_E,5_ + 1 N_Biological_E,(5,_9)_ >= -1.474737730210938e8
c451_1: 0.9084062500000001 Q_MR,Biological_E,(6,_6),1_ + 0.8902381250000001 Q_MR,Biological_E,(6,_6),2_ + 0.8629859375000001 Q_MR,Biological_E,(6,_6),3_ + 0.0851796875 Q_TT,Biological_E,(6,_6),1_ + 0.08347609375000001 Q_TT,Biological_E,(6,_6),2_ + 0.080920703125 Q_TT,Biological_E,(6,_6),3_ + 0.124659375 Q_Td,Biological_E,(6,_6),1_ + 0.1221661875 Q_Td,Biological_E,(6,_6),2_ + 0.11842640624999999 Q_Td,Biological_E,(6,_6),3_ + 0.177 Q_DTwP,Biological_E,(6,_6),1_ + 0.17345999999999998 Q_DTwP,Biological_E,(6,_6),2_ + 0.16815 Q_DTwP,Biological_E,(6,_6),3_ + 0.9935 Q_Penta,Biological_E,(6,_6),1_ + 0.97363 Q_Penta,Biological_E,(6,_6),2_ + 0.943825 Q_Penta,Biological_E,(6,_6),3_ - 1 N_Biological_E,(6,_6)_ >= 0
c452_1: -2.9494754604218755e7 W_Biological_E,(6,_6)_ - 1 Y_tilde_Biological_E,6_ + 1 N_Biological_E,(6,_6)_ >= -2.9494754604218755e7
c453_1: 0.9084062500000001 Q_MR,Biological_E,(6,_7),1_ + 0.8902381250000001 Q_MR,Biological_E,(6,_7),2_ + 0.8629859375000001 Q_MR,Biological_E,(6,_7),3_ + 0.0851796875 Q_TT,Biological_E,(6,_7),1_ + 0.08347609375000001 Q_TT,Biological_E,(6,_7),2_ + 0.080920703125 Q_TT,Biological_E,(6,_7),3_ + 0.124659375 Q_Td,Biological_E,(6,_7),1_ + 0.1221661875 Q_Td,Biological_E,(6,_7),2_ + 0.11842640624999999 Q_Td,Biological_E,(6,_7),3_ + 0.177 Q_DTwP,Biological_E,(6,_7),1_ + 0.17345999999999998 Q_DTwP,Biological_E,(6,_7),2_ + 0.16815 Q_DTwP,Biological_E,(6,_7),3_ + 0.9935 Q_Penta,Biological_E,(6,_7),1_ + 0.97363 Q_Penta,Biological_E,(6,_7),2_ + 0.943825 Q_Penta,Biological_E,(6,_7),3_ - 1 N_Biological_E,(6,_7)_ >= 0
c454_1: -5.898950920843751e7 W_Biological_E,(6,_7)_ - 1 Y_tilde_Biological_E,6_ + 1 N_Biological_E,(6,_7)_ >= -5.898950920843751e7
c455_1: 0.9084062500000001 Q_MR,Biological_E,(6,_8),1_ + 0.8902381250000001 Q_MR,Biological_E,(6,_8),2_ + 0.8629859375000001 Q_MR,Biological_E,(6,_8),3_ + 0.0851796875 Q_TT,Biological_E,(6,_8),1_ + 0.08347609375000001 Q_TT,Biological_E,(6,_8),2_ + 0.080920703125 Q_TT,Biological_E,(6,_8),3_ + 0.124659375 Q_Td,Biological_E,(6,_8),1_ + 0.1221661875 Q_Td,Biological_E,(6,_8),2_ + 0.11842640624999999 Q_Td,Biological_E,(6,_8),3_ + 0.177 Q_DTwP,Biological_E,(6,_8),1_ + 0.17345999999999998 Q_DTwP,Biological_E,(6,_8),2_ + 0.16815 Q_DTwP,Biological_E,(6,_8),3_ + 0.9935 Q_Penta,Biological_E,(6,_8),1_ + 0.97363 Q_Penta,Biological_E,(6,_8),2_ + 0.943825 Q_Penta,Biological_E,(6,_8),3_ - 1 N_Biological_E,(6,_8)_ >= 0
c456_1: -8.848426381265627e7 W_Biological_E,(6,_8)_ - 1 Y_tilde_Biological_E,6_ + 1 N_Biological_E,(6,_8)_ >= -8.848426381265627e7
c457_1: 0.9084062500000001 Q_MR,Biological_E,(6,_9),1_ + 0.8902381250000001 Q_MR,Biological_E,(6,_9),2_ + 0.8629859375000001 Q_MR,Biological_E,(6,_9),3_ + 0.0851796875 Q_TT,Biological_E,(6,_9),1_ + 0.08347609375000001 Q_TT,Biological_E,(6,_9),2_ + 0.080920703125 Q_TT,Biological_E,(6,_9),3_ + 0.124659375 Q_Td,Biological_E,(6,_9),1_ + 0.1221661875 Q_Td,Biological_E,(6,_9),2_ + 0.11842640624999999 Q_Td,Biological_E,(6,_9),3_ + 0.177 Q_DTwP,Biological_E,(6,_9),1_ + 0.17345999999999998 Q_DTwP,Biological_E,(6,_9),2_ + 0.16815 Q_DTwP,Biological_E,(6,_9),3_ + 0.9935 Q_Penta,Biological_E,(6,_9),1_ + 0.97363 Q_Penta,Biological_E,(6,_9),2_ + 0.943825 Q_Penta,Biological_E,(6,_9),3_ - 1 N_Biological_E,(6,_9)_ >= 0
c458_1: -1.1797901841687502e8 W_Biological_E,(6,_9)_ - 1 Y_tilde_Biological_E,6_ + 1 N_Biological_E,(6,_9)_ >= -1.1797901841687502e8
c459_1: 0.9084062500000001 Q_MR,Biological_E,(6,_10),1_ + 0.8902381250000001 Q_MR,Biological_E,(6,_10),2_ + 0.8629859375000001 Q_MR,Biological_E,(6,_10),3_ + 0.0851796875 Q_TT,Biological_E,(6,_10),1_ + 0.08347609375000001 Q_TT,Biological_E,(6,_10),2_ + 0.080920703125 Q_TT,Biological_E,(6,_10),3_ + 0.124659375 Q_Td,Biological_E,(6,_10),1_ + 0.1221661875 Q_Td,Biological_E,(6,_10),2_ + 0.11842640624999999 Q_Td,Biological_E,(6,_10),3_ + 0.177 Q_DTwP,Biological_E,(6,_10),1_ + 0.17345999999999998 Q_DTwP,Biological_E,(6,_10),2_ + 0.16815 Q_DTwP,Biological_E,(6,_10),3_ + 0.9935 Q_Penta,Biological_E,(6,_10),1_ + 0.97363 Q_Penta,Biological_E,(6,_10),2_ + 0.943825 Q_Penta,Biological_E,(6,_10),3_ - 1 N_Biological_E,(6,_10)_ >= 0
c460_1: -1.474737730210938e8 W_Biological_E,(6,_10)_ - 1 Y_tilde_Biological_E,6_ + 1 N_Biological_E,(6,_10)_ >= -1.474737730210938e8
c461_1: 0.903671875 Q_MR,Biological_E,(7,_7),1_ + 0.8855984375 Q_MR,Biological_E,(7,_7),2_ + 0.85848828125 Q_MR,Biological_E,(7,_7),3_ + 0.08669765624999999 Q_TT,Biological_E,(7,_7),1_ + 0.08496370312499998 Q_TT,Biological_E,(7,_7),2_ + 0.08236277343749998 Q_TT,Biological_E,(7,_7),3_ + 0.1292953125 Q_Td,Biological_E,(7,_7),1_ + 0.12670940625000002 Q_Td,Biological_E,(7,_7),2_ + 0.122830546875 Q_Td,Biological_E,(7,_7),3_ + 0.177 Q_DTwP,Biological_E,(7,_7),1_ + 0.17345999999999998 Q_DTwP,Biological_E,(7,_7),2_ + 0.16815 Q_DTwP,Biological_E,(7,_7),3_ + 0.99825 Q_Penta,Biological_E,(7,_7),1_ + 0.978285 Q_Penta,Biological_E,(7,_7),2_ + 0.9483374999999999 Q_Penta,Biological_E,(7,_7),3_ - 1 N_Biological_E,(7,_7)_ >= 0
c462_1: -2.9494754604218755e7 W_Biological_E,(7,_7)_ - 1 Y_tilde_Biological_E,7_ + 1 N_Biological_E,(7,_7)_ >= -2.9494754604218755e7
c463_1: 0.903671875 Q_MR,Biological_E,(7,_8),1_ + 0.8855984375 Q_MR,Biological_E,(7,_8),2_ + 0.85848828125 Q_MR,Biological_E,(7,_8),3_ + 0.08669765624999999 Q_TT,Biological_E,(7,_8),1_ + 0.08496370312499998 Q_TT,Biological_E,(7,_8),2_ + 0.08236277343749998 Q_TT,Biological_E,(7,_8),3_ + 0.1292953125 Q_Td,Biological_E,(7,_8),1_ + 0.12670940625000002 Q_Td,Biological_E,(7,_8),2_ + 0.122830546875 Q_Td,Biological_E,(7,_8),3_ + 0.177 Q_DTwP,Biological_E,(7,_8),1_ + 0.17345999999999998 Q_DTwP,Biological_E,(7,_8),2_ + 0.16815 Q_DTwP,Biological_E,(7,_8),3_ + 0.99825 Q_Penta,Biological_E,(7,_8),1_ + 0.978285 Q_Penta,Biological_E,(7,_8),2_ + 0.9483374999999999 Q_Penta,Biological_E,(7,_8),3_ - 1 N_Biological_E,(7,_8)_ >= 0
c464_1: -5.898950920843751e7 W_Biological_E,(7,_8)_ - 1 Y_tilde_Biological_E,7_ + 1 N_Biological_E,(7,_8)_ >= -5.898950920843751e7
c465_1: 0.903671875 Q_MR,Biological_E,(7,_9),1_ + 0.8855984375 Q_MR,Biological_E,(7,_9),2_ + 0.85848828125 Q_MR,Biological_E,(7,_9),3_ + 0.08669765624999999 Q_TT,Biological_E,(7,_9),1_ + 0.08496370312499998 Q_TT,Biological_E,(7,_9),2_ + 0.08236277343749998 Q_TT,Biological_E,(7,_9),3_ + 0.1292953125 Q_Td,Biological_E,(7,_9),1_ + 0.12670940625000002 Q_Td,Biological_E,(7,_9),2_ + 0.122830546875 Q_Td,Biological_E,(7,_9),3_ + 0.177 Q_DTwP,Biological_E,(7,_9),1_ + 0.17345999999999998 Q_DTwP,Biological_E,(7,_9),2_ + 0.16815 Q_DTwP,Biological_E,(7,_9),3_ + 0.99825 Q_Penta,Biological_E,(7,_9),1_ + 0.978285 Q_Penta,Biological_E,(7,_9),2_ + 0.9483374999999999 Q_Penta,Biological_E,(7,_9),3_ - 1 N_Biological_E,(7,_9)_ >= 0
c466_1: -8.848426381265627e7 W_Biological_E,(7,_9)_ - 1 Y_tilde_Biological_E,7_ + 1 N_Biological_E,(7,_9)_ >= -8.848426381265627e7
c467_1: 0.903671875 Q_MR,Biological_E,(7,_10),1_ + 0.8855984375 Q_MR,Biological_E,(7,_10),2_ + 0.85848828125 Q_MR,Biological_E,(7,_10),3_ + 0.08669765624999999 Q_TT,Biological_E,(7,_10),1_ + 0.08496370312499998 Q_TT,Biological_E,(7,_10),2_ + 0.08236277343749998 Q_TT,Biological_E,(7,_10),3_ + 0.1292953125 Q_Td,Biological_E,(7,_10),1_ + 0.12670940625000002 Q_Td,Biological_E,(7,_10),2_ + 0.122830546875 Q_Td,Biological_E,(7,_10),3_ + 0.177 Q_DTwP,Biological_E,(7,_10),1_ + 0.17345999999999998 Q_DTwP,Biological_E,(7,_10),2_ + 0.16815 Q_DTwP,Biological_E,(7,_10),3_ + 0.99825 Q_Penta,Biological_E,(7,_10),1_ + 0.978285 Q_Penta,Biological_E,(7,_10),2_ + 0.9483374999999999 Q_Penta,Biological_E,(7,_10),3_ - 1 N_Biological_E,(7,_10)_ >= 0
c468_1: -1.1797901841687502e8 W_Biological_E,(7,_10)_ - 1 Y_tilde_Biological_E,7_ + 1 N_Biological_E,(7,_10)_ >= -1.1797901841687502e8
c469_1: 0.9060390625 Q_MR,Biological_E,(8,_8),1_ + 0.8879182812499999 Q_MR,Biological_E,(8,_8),2_ + 0.8607371093749999 Q_MR,Biological_E,(8,_8),3_ + 0.086707421875 Q_TT,Biological_E,(8,_8),1_ + 0.0849732734375 Q_TT,Biological_E,(8,_8),2_ + 0.08237205078125 Q_TT,Biological_E,(8,_8),3_ + 0.12897734375 Q_Td,Biological_E,(8,_8),1_ + 0.126397796875 Q_Td,Biological_E,(8,_8),2_ + 0.12252847656249999 Q_Td,Biological_E,(8,_8),3_ + 0.177 Q_DTwP,Biological_E,(8,_8),1_ + 0.17345999999999998 Q_DTwP,Biological_E,(8,_8),2_ + 0.16815 Q_DTwP,Biological_E,(8,_8),3_ + 0.996875 Q_Penta,Biological_E,(8,_8),1_ + 0.9769374999999999 Q_Penta,Biological_E,(8,_8),2_ + 0.9470312499999999 Q_Penta,Biological_E,(8,_8),3_ - 1 N_Biological_E,(8,_8)_ >= 0
c470_1: -2.9494754604218755e7 W_Biological_E,(8,_8)_ - 1 Y_tilde_Biological_E,8_ + 1 N_Biological_E,(8,_8)_ >= -2.9494754604218755e7
c471_1: 0.9060390625 Q_MR,Biological_E,(8,_9),1_ + 0.8879182812499999 Q_MR,Biological_E,(8,_9),2_ + 0.8607371093749999 Q_MR,Biological_E,(8,_9),3_ + 0.086707421875 Q_TT,Biological_E,(8,_9),1_ + 0.0849732734375 Q_TT,Biological_E,(8,_9),2_ + 0.08237205078125 Q_TT,Biological_E,(8,_9),3_ + 0.12897734375 Q_Td,Biological_E,(8,_9),1_ + 0.126397796875 Q_Td,Biological_E,(8,_9),2_ + 0.12252847656249999 Q_Td,Biological_E,(8,_9),3_ + 0.177 Q_DTwP,Biological_E,(8,_9),1_ + 0.17345999999999998 Q_DTwP,Biological_E,(8,_9),2_ + 0.16815 Q_DTwP,Biological_E,(8,_9),3_ + 0.996875 Q_Penta,Biological_E,(8,_9),1_ + 0.9769374999999999 Q_Penta,Biological_E,(8,_9),2_ + 0.9470312499999999 Q_Penta,Biological_E,(8,_9),3_ - 1 N_Biological_E,(8,_9)_ >= 0
c472_1: -5.898950920843751e7 W_Biological_E,(8,_9)_ - 1 Y_tilde_Biological_E,8_ + 1 N_Biological_E,(8,_9)_ >= -5.898950920843751e7
c473_1: 0.9060390625 Q_MR,Biological_E,(8,_10),1_ + 0.8879182812499999 Q_MR,Biological_E,(8,_10),2_ + 0.8607371093749999 Q_MR,Biological_E,(8,_10),3_ + 0.086707421875 Q_TT,Biological_E,(8,_10),1_ + 0.0849732734375 Q_TT,Biological_E,(8,_10),2_ + 0.08237205078125 Q_TT,Biological_E,(8,_10),3_ + 0.12897734375 Q_Td,Biological_E,(8,_10),1_ + 0.126397796875 Q_Td,Biological_E,(8,_10),2_ + 0.12252847656249999 Q_Td,Biological_E,(8,_10),3_ + 0.177 Q_DTwP,Biological_E,(8,_10),1_ + 0.17345999999999998 Q_DTwP,Biological_E,(8,_10),2_ + 0.16815 Q_DTwP,Biological_E,(8,_10),3_ + 0.996875 Q_Penta,Biological_E,(8,_10),1_ + 0.9769374999999999 Q_Penta,Biological_E,(8,_10),2_ + 0.9470312499999999 Q_Penta,Biological_E,(8,_10),3_ - 1 N_Biological_E,(8,_10)_ >= 0
c474_1: -8.848426381265627e7 W_Biological_E,(8,_10)_ - 1 Y_tilde_Biological_E,8_ + 1 N_Biological_E,(8,_10)_ >= -8.848426381265627e7
c475_1: 0.90485546875 Q_MR,Biological_E,(9,_9),1_ + 0.886758359375 Q_MR,Biological_E,(9,_9),2_ + 0.8596126953125 Q_MR,Biological_E,(9,_9),3_ + 0.0867025390625 Q_TT,Biological_E,(9,_9),1_ + 0.08496848828125 Q_TT,Biological_E,(9,_9),2_ + 0.082367412109375 Q_TT,Biological_E,(9,_9),3_ + 0.129136328125 Q_Td,Biological_E,(9,_9),1_ + 0.1265536015625 Q_Td,Biological_E,(9,_9),2_ + 0.12267951171875 Q_Td,Biological_E,(9,_9),3_ + 0.177 Q_DTwP,Biological_E,(9,_9),1_ + 0.17345999999999998 Q_DTwP,Biological_E,(9,_9),2_ + 0.16815 Q_DTwP,Biological_E,(9,_9),3_ + 0.9975625000000001 Q_Penta,Biological_E,(9,_9),1_ + 0.9776112500000002 Q_Penta,Biological_E,(9,_9),2_ + 0.9476843750000001 Q_Penta,Biological_E,(9,_9),3_ - 1 N_Biological_E,(9,_9)_ >= 0
c476_1: -2.9494754604218755e7 W_Biological_E,(9,_9)_ - 1 Y_tilde_Biological_E,9_ + 1 N_Biological_E,(9,_9)_ >= -2.9494754604218755e7
c477_1: 0.90485546875 Q_MR,Biological_E,(9,_10),1_ + 0.886758359375 Q_MR,Biological_E,(9,_10),2_ + 0.8596126953125 Q_MR,Biological_E,(9,_10),3_ + 0.0867025390625 Q_TT,Biological_E,(9,_10),1_ + 0.08496848828125 Q_TT,Biological_E,(9,_10),2_ + 0.082367412109375 Q_TT,Biological_E,(9,_10),3_ + 0.129136328125 Q_Td,Biological_E,(9,_10),1_ + 0.1265536015625 Q_Td,Biological_E,(9,_10),2_ + 0.12267951171875 Q_Td,Biological_E,(9,_10),3_ + 0.177 Q_DTwP,Biological_E,(9,_10),1_ + 0.17345999999999998 Q_DTwP,Biological_E,(9,_10),2_ + 0.16815 Q_DTwP,Biological_E,(9,_10),3_ + 0.9975625000000001 Q_Penta,Biological_E,(9,_10),1_ + 0.9776112500000002 Q_Penta,Biological_E,(9,_10),2_ + 0.9476843750000001 Q_Penta,Biological_E,(9,_10),3_ - 1 N_Biological_E,(9,_10)_ >= 0
c478_1: -5.898950920843751e7 W_Biological_E,(9,_10)_ - 1 Y_tilde_Biological_E,9_ + 1 N_Biological_E,(9,_10)_ >= -5.898950920843751e7
c479_1: 0.905447265625 Q_MR,Biological_E,(10,_10),1_ + 0.8873383203124999 Q_MR,Biological_E,(10,_10),2_ + 0.8601749023437499 Q_MR,Biological_E,(10,_10),3_ + 0.09829248046875 Q_TT,Biological_E,(10,_10),1_ + 0.096326630859375 Q_TT,Biological_E,(10,_10),2_ + 0.09337785644531249 Q_TT,Biological_E,(10,_10),3_ + 0.1290568359375 Q_Td,Biological_E,(10,_10),1_ + 0.12647569921875 Q_Td,Biological_E,(10,_10),2_ + 0.12260399414062499 Q_Td,Biological_E,(10,_10),3_ + 0.177 Q_DTwP,Biological_E,(10,_10),1_ + 0.17345999999999998 Q_DTwP,Biological_E,(10,_10),2_ + 0.16815 Q_DTwP,Biological_E,(10,_10),3_ + 0.99721875 Q_Penta,Biological_E,(10,_10),1_ + 0.977274375 Q_Penta,Biological_E,(10,_10),2_ + 0.9473578125 Q_Penta,Biological_E,(10,_10),3_ - 1 N_Biological_E,(10,_10)_ >= 0
c480_1: -2.9494754604218755e7 W_Biological_E,(10,_10)_ - 1 Y_tilde_Biological_E,10_ + 1 N_Biological_E,(10,_10)_ >= -2.9494754604218755e7
c481_1: 3.207 Q_MMR,GSK,(1,_1),1_ + 3.1428599999999998 Q_MMR,GSK,(1,_1),2_ + 3.0466499999999996 Q_MMR,GSK,(1,_1),3_ + 0.13305 Q_OPV,GSK,(1,_1),1_ + 0.130389 Q_OPV,GSK,(1,_1),2_ + 0.1263975 Q_OPV,GSK,(1,_1),3_ + 4 Q_HPV,GSK,(1,_1),1_ + 3.92 Q_HPV,GSK,(1,_1),2_ + 3.8 Q_HPV,GSK,(1,_1),3_ + 1.2642666666666666 Q_Rotavirus,GSK,(1,_1),1_ + 1.2389813333333333 Q_Rotavirus,GSK,(1,_1),2_ + 1.2010533333333333 Q_Rotavirus,GSK,(1,_1),3_ + 2.8666666666666667 Q_PCV,GSK,(1,_1),1_ + 2.8093333333333335 Q_PCV,GSK,(1,_1),2_ + 2.723333333333333 Q_PCV,GSK,(1,_1),3_ - 1 N_GSK,(1,_1)_ >= 0
c482_1: -3.675731394979876e8 W_GSK,(1,_1)_ - 1 Y_tilde_GSK,1_ + 1 N_GSK,(1,_1)_ >= -3.675731394979876e8
c483_1: 3.207 Q_MMR,GSK,(1,_2),1_ + 3.1428599999999998 Q_MMR,GSK,(1,_2),2_ + 3.0466499999999996 Q_MMR,GSK,(1,_2),3_ + 0.13305 Q_OPV,GSK,(1,_2),1_ + 0.130389 Q_OPV,GSK,(1,_2),2_ + 0.1263975 Q_OPV,GSK,(1,_2),3_ + 4 Q_HPV,GSK,(1,_2),1_ + 3.92 Q_HPV,GSK,(1,_2),2_ + 3.8 Q_HPV,GSK,(1,_2),3_ + 1.2642666666666666 Q_Rotavirus,GSK,(1,_2),1_ + 1.2389813333333333 Q_Rotavirus,GSK,(1,_2),2_ + 1.2010533333333333 Q_Rotavirus,GSK,(1,_2),3_ + 2.8666666666666667 Q_PCV,GSK,(1,_2),1_ + 2.8093333333333335 Q_PCV,GSK,(1,_2),2_ + 2.723333333333333 Q_PCV,GSK,(1,_2),3_ - 1 N_GSK,(1,_2)_ >= 0
c484_1: -7.351462789959753e8 W_GSK,(1,_2)_ - 1 Y_tilde_GSK,1_ + 1 N_GSK,(1,_2)_ >= -7.351462789959753e8
c485_1: 3.207 Q_MMR,GSK,(1,_3),1_ + 3.1428599999999998 Q_MMR,GSK,(1,_3),2_ + 3.0466499999999996 Q_MMR,GSK,(1,_3),3_ + 0.13305 Q_OPV,GSK,(1,_3),1_ + 0.130389 Q_OPV,GSK,(1,_3),2_ + 0.1263975 Q_OPV,GSK,(1,_3),3_ + 4 Q_HPV,GSK,(1,_3),1_ + 3.92 Q_HPV,GSK,(1,_3),2_ + 3.8 Q_HPV,GSK,(1,_3),3_ + 1.2642666666666666 Q_Rotavirus,GSK,(1,_3),1_ + 1.2389813333333333 Q_Rotavirus,GSK,(1,_3),2_ + 1.2010533333333333 Q_Rotavirus,GSK,(1,_3),3_ + 2.8666666666666667 Q_PCV,GSK,(1,_3),1_ + 2.8093333333333335 Q_PCV,GSK,(1,_3),2_ + 2.723333333333333 Q_PCV,GSK,(1,_3),3_ - 1 N_GSK,(1,_3)_ >= 0
c486_1: -1.1027194184939628e9 W_GSK,(1,_3)_ - 1 Y_tilde_GSK,1_ + 1 N_GSK,(1,_3)_ >= -1.1027194184939628e9
c487_1: 3.207 Q_MMR,GSK,(1,_4),1_ + 3.1428599999999998 Q_MMR,GSK,(1,_4),2_ + 3.0466499999999996 Q_MMR,GSK,(1,_4),3_ + 0.13305 Q_OPV,GSK,(1,_4),1_ + 0.130389 Q_OPV,GSK,(1,_4),2_ + 0.1263975 Q_OPV,GSK,(1,_4),3_ + 4 Q_HPV,GSK,(1,_4),1_ + 3.92 Q_HPV,GSK,(1,_4),2_ + 3.8 Q_HPV,GSK,(1,_4),3_ + 1.2642666666666666 Q_Rotavirus,GSK,(1,_4),1_ + 1.2389813333333333 Q_Rotavirus,GSK,(1,_4),2_ + 1.2010533333333333 Q_Rotavirus,GSK,(1,_4),3_ + 2.8666666666666667 Q_PCV,GSK,(1,_4),1_ + 2.8093333333333335 Q_PCV,GSK,(1,_4),2_ + 2.723333333333333 Q_PCV,GSK,(1,_4),3_ - 1 N_GSK,(1,_4)_ >= 0
c488_1: -1.4702925579919498e9 W_GSK,(1,_4)_ - 1 Y_tilde_GSK,1_ + 1 N_GSK,(1,_4)_ >= -1.4702925579919498e9
c489_1: 3.207 Q_MMR,GSK,(1,_5),1_ + 3.1428599999999998 Q_MMR,GSK,(1,_5),2_ + 3.0466499999999996 Q_MMR,GSK,(1,_5),3_ + 0.13305 Q_OPV,GSK,(1,_5),1_ + 0.130389 Q_OPV,GSK,(1,_5),2_ + 0.1263975 Q_OPV,GSK,(1,_5),3_ + 4 Q_HPV,GSK,(1,_5),1_ + 3.92 Q_HPV,GSK,(1,_5),2_ + 3.8 Q_HPV,GSK,(1,_5),3_ + 1.2642666666666666 Q_Rotavirus,GSK,(1,_5),1_ + 1.2389813333333333 Q_Rotavirus,GSK,(1,_5),2_ + 1.2010533333333333 Q_Rotavirus,GSK,(1,_5),3_ + 2.8666666666666667 Q_PCV,GSK,(1,_5),1_ + 2.8093333333333335 Q_PCV,GSK,(1,_5),2_ + 2.723333333333333 Q_PCV,GSK,(1,_5),3_ - 1 N_GSK,(1,_5)_ >= 0
c490_1: -1.8378656974899368e9 W_GSK,(1,_5)_ - 1 Y_tilde_GSK,1_ + 1 N_GSK,(1,_5)_ >= -1.8378656974899368e9
c491_1: 3.303166666666667 Q_MMR,GSK,(2,_2),1_ + 3.237103333333333 Q_MMR,GSK,(2,_2),2_ + 3.1380083333333335 Q_MMR,GSK,(2,_2),3_ + 0.13693750000000002 Q_OPV,GSK,(2,_2),1_ + 0.13419875 Q_OPV,GSK,(2,_2),2_ + 0.13009062500000002 Q_OPV,GSK,(2,_2),3_ + 4.193333333333333 Q_HPV,GSK,(2,_2),1_ + 4.109466666666667 Q_HPV,GSK,(2,_2),2_ + 3.9836666666666667 Q_HPV,GSK,(2,_2),3_ + 1.3535000000000001 Q_Rotavirus,GSK,(2,_2),1_ + 1.3264300000000002 Q_Rotavirus,GSK,(2,_2),2_ + 1.285825 Q_Rotavirus,GSK,(2,_2),3_ + 2.8666666666666667 Q_PCV,GSK,(2,_2),1_ + 2.8093333333333335 Q_PCV,GSK,(2,_2),2_ + 2.723333333333333 Q_PCV,GSK,(2,_2),3_ - 1 N_GSK,(2,_2)_ >= 0
c492_1: -3.675731394979876e8 W_GSK,(2,_2)_ - 1 Y_tilde_GSK,2_ + 1 N_GSK,(2,_2)_ >= -3.675731394979876e8
c493_1: 3.303166666666667 Q_MMR,GSK,(2,_3),1_ + 3.237103333333333 Q_MMR,GSK,(2,_3),2_ + 3.1380083333333335 Q_MMR,GSK,(2,_3),3_ + 0.13693750000000002 Q_OPV,GSK,(2,_3),1_ + 0.13419875 Q_OPV,GSK,(2,_3),2_ + 0.13009062500000002 Q_OPV,GSK,(2,_3),3_ + 4.193333333333333 Q_HPV,GSK,(2,_3),1_ + 4.109466666666667 Q_HPV,GSK,(2,_3),2_ + 3.9836666666666667 Q_HPV,GSK,(2,_3),3_ + 1.3535000000000001 Q_Rotavirus,GSK,(2,_3),1_ + 1.3264300000000002 Q_Rotavirus,GSK,(2,_3),2_ + 1.285825 Q_Rotavirus,GSK,(2,_3),3_ + 2.8666666666666667 Q_PCV,GSK,(2,_3),1_ + 2.8093333333333335 Q_PCV,GSK,(2,_3),2_ + 2.723333333333333 Q_PCV,GSK,(2,_3),3_ - 1 N_GSK,(2,_3)_ >= 0
c494_1: -7.351462789959753e8 W_GSK,(2,_3)_ - 1 Y_tilde_GSK,2_ + 1 N_GSK,(2,_3)_ >= -7.351462789959753e8
c495_1: 3.303166666666667 Q_MMR,GSK,(2,_4),1_ + 3.237103333333333 Q_MMR,GSK,(2,_4),2_ + 3.1380083333333335 Q_MMR,GSK,(2,_4),3_ + 0.13693750000000002 Q_OPV,GSK,(2,_4),1_ + 0.13419875 Q_OPV,GSK,(2,_4),2_ + 0.13009062500000002 Q_OPV,GSK,(2,_4),3_ + 4.193333333333333 Q_HPV,GSK,(2,_4),1_ + 4.109466666666667 Q_HPV,GSK,(2,_4),2_ + 3.9836666666666667 Q_HPV,GSK,(2,_4),3_ + 1.3535000000000001 Q_Rotavirus,GSK,(2,_4),1_ + 1.3264300000000002 Q_Rotavirus,GSK,(2,_4),2_ + 1.285825 Q_Rotavirus,GSK,(2,_4),3_ + 2.8666666666666667 Q_PCV,GSK,(2,_4),1_ + 2.8093333333333335 Q_PCV,GSK,(2,_4),2_ + 2.723333333333333 Q_PCV,GSK,(2,_4),3_ - 1 N_GSK,(2,_4)_ >= 0
c496_1: -1.1027194184939628e9 W_GSK,(2,_4)_ - 1 Y_tilde_GSK,2_ + 1 N_GSK,(2,_4)_ >= -1.1027194184939628e9
c497_1: 3.303166666666667 Q_MMR,GSK,(2,_5),1_ + 3.237103333333333 Q_MMR,GSK,(2,_5),2_ + 3.1380083333333335 Q_MMR,GSK,(2,_5),3_ + 0.13693750000000002 Q_OPV,GSK,(2,_5),1_ + 0.13419875 Q_OPV,GSK,(2,_5),2_ + 0.13009062500000002 Q_OPV,GSK,(2,_5),3_ + 4.193333333333333 Q_HPV,GSK,(2,_5),1_ + 4.109466666666667 Q_HPV,GSK,(2,_5),2_ + 3.9836666666666667 Q_HPV,GSK,(2,_5),3_ + 1.3535000000000001 Q_Rotavirus,GSK,(2,_5),1_ + 1.3264300000000002 Q_Rotavirus,GSK,(2,_5),2_ + 1.285825 Q_Rotavirus,GSK,(2,_5),3_ + 2.8666666666666667 Q_PCV,GSK,(2,_5),1_ + 2.8093333333333335 Q_PCV,GSK,(2,_5),2_ + 2.723333333333333 Q_PCV,GSK,(2,_5),3_ - 1 N_GSK,(2,_5)_ >= 0
c498_1: -1.4702925579919498e9 W_GSK,(2,_5)_ - 1 Y_tilde_GSK,2_ + 1 N_GSK,(2,_5)_ >= -1.4702925579919498e9
c499_1: 3.303166666666667 Q_MMR,GSK,(2,_6),1_ + 3.237103333333333 Q_MMR,GSK,(2,_6),2_ + 3.1380083333333335 Q_MMR,GSK,(2,_6),3_ + 0.13693750000000002 Q_OPV,GSK,(2,_6),1_ + 0.13419875 Q_OPV,GSK,(2,_6),2_ + 0.13009062500000002 Q_OPV,GSK,(2,_6),3_ + 4.193333333333333 Q_HPV,GSK,(2,_6),1_ + 4.109466666666667 Q_HPV,GSK,(2,_6),2_ + 3.9836666666666667 Q_HPV,GSK,(2,_6),3_ + 1.3535000000000001 Q_Rotavirus,GSK,(2,_6),1_ + 1.3264300000000002 Q_Rotavirus,GSK,(2,_6),2_ + 1.285825 Q_Rotavirus,GSK,(2,_6),3_ + 2.8666666666666667 Q_PCV,GSK,(2,_6),1_ + 2.8093333333333335 Q_PCV,GSK,(2,_6),2_ + 2.723333333333333 Q_PCV,GSK,(2,_6),3_ - 1 N_GSK,(2,_6)_ >= 0
c500_1: -1.8378656974899368e9 W_GSK,(2,_6)_ - 1 Y_tilde_GSK,2_ + 1 N_GSK,(2,_6)_ >= -1.8378656974899368e9
c501_1: 3.4091666666666667 Q_MMR,GSK,(3,_3),1_ + 3.3409833333333334 Q_MMR,GSK,(3,_3),2_ + 3.2387083333333333 Q_MMR,GSK,(3,_3),3_ + 0.13693750000000002 Q_OPV,GSK,(3,_3),1_ + 0.13419875 Q_OPV,GSK,(3,_3),2_ + 0.13009062500000002 Q_OPV,GSK,(3,_3),3_ + 4.193333333333333 Q_HPV,GSK,(3,_3),1_ + 4.109466666666667 Q_HPV,GSK,(3,_3),2_ + 3.9836666666666667 Q_HPV,GSK,(3,_3),3_ + 1.3535000000000001 Q_Rotavirus,GSK,(3,_3),1_ + 1.3264300000000002 Q_Rotavirus,GSK,(3,_3),2_ + 1.285825 Q_Rotavirus,GSK,(3,_3),3_ + 2.7083333333333335 Q_PCV,GSK,(3,_3),1_ + 2.654166666666667 Q_PCV,GSK,(3,_3),2_ + 2.5729166666666665 Q_PCV,GSK,(3,_3),3_ - 1 N_GSK,(3,_3)_ >= 0
c502_1: -3.675731394979876e8 W_GSK,(3,_3)_ - 1 Y_tilde_GSK,3_ + 1 N_GSK,(3,_3)_ >= -3.675731394979876e8
c503_1: 3.4091666666666667 Q_MMR,GSK,(3,_4),1_ + 3.3409833333333334 Q_MMR,GSK,(3,_4),2_ + 3.2387083333333333 Q_MMR,GSK,(3,_4),3_ + 0.13693750000000002 Q_OPV,GSK,(3,_4),1_ + 0.13419875 Q_OPV,GSK,(3,_4),2_ + 0.13009062500000002 Q_OPV,GSK,(3,_4),3_ + 4.193333333333333 Q_HPV,GSK,(3,_4),1_ + 4.109466666666667 Q_HPV,GSK,(3,_4),2_ + 3.9836666666666667 Q_HPV,GSK,(3,_4),3_ + 1.3535000000000001 Q_Rotavirus,GSK,(3,_4),1_ + 1.3264300000000002 Q_Rotavirus,GSK,(3,_4),2_ + 1.285825 Q_Rotavirus,GSK,(3,_4),3_ + 2.7083333333333335 Q_PCV,GSK,(3,_4),1_ + 2.654166666666667 Q_PCV,GSK,(3,_4),2_ + 2.5729166666666665 Q_PCV,GSK,(3,_4),3_ - 1 N_GSK,(3,_4)_ >= 0
c504_1: -7.351462789959753e8 W_GSK,(3,_4)_ - 1 Y_tilde_GSK,3_ + 1 N_GSK,(3,_4)_ >= -7.351462789959753e8
c505_1: 3.4091666666666667 Q_MMR,GSK,(3,_5),1_ + 3.3409833333333334 Q_MMR,GSK,(3,_5),2_ + 3.2387083333333333 Q_MMR,GSK,(3,_5),3_ + 0.13693750000000002 Q_OPV,GSK,(3,_5),1_ + 0.13419875 Q_OPV,GSK,(3,_5),2_ + 0.13009062500000002 Q_OPV,GSK,(3,_5),3_ + 4.193333333333333 Q_HPV,GSK,(3,_5),1_ + 4.109466666666667 Q_HPV,GSK,(3,_5),2_ + 3.9836666666666667 Q_HPV,GSK,(3,_5),3_ + 1.3535000000000001 Q_Rotavirus,GSK,(3,_5),1_ + 1.3264300000000002 Q_Rotavirus,GSK,(3,_5),2_ + 1.285825 Q_Rotavirus,GSK,(3,_5),3_ + 2.7083333333333335 Q_PCV,GSK,(3,_5),1_ + 2.654166666666667 Q_PCV,GSK,(3,_5),2_ + 2.5729166666666665 Q_PCV,GSK,(3,_5),3_ - 1 N_GSK,(3,_5)_ >= 0
c506_1: -1.1027194184939628e9 W_GSK,(3,_5)_ - 1 Y_tilde_GSK,3_ + 1 N_GSK,(3,_5)_ >= -1.1027194184939628e9
c507_1: 3.4091666666666667 Q_MMR,GSK,(3,_6),1_ + 3.3409833333333334 Q_MMR,GSK,(3,_6),2_ + 3.2387083333333333 Q_MMR,GSK,(3,_6),3_ + 0.13693750000000002 Q_OPV,GSK,(3,_6),1_ + 0.13419875 Q_OPV,GSK,(3,_6),2_ + 0.13009062500000002 Q_OPV,GSK,(3,_6),3_ + 4.193333333333333 Q_HPV,GSK,(3,_6),1_ + 4.109466666666667 Q_HPV,GSK,(3,_6),2_ + 3.9836666666666667 Q_HPV,GSK,(3,_6),3_ + 1.3535000000000001 Q_Rotavirus,GSK,(3,_6),1_ + 1.3264300000000002 Q_Rotavirus,GSK,(3,_6),2_ + 1.285825 Q_Rotavirus,GSK,(3,_6),3_ + 2.7083333333333335 Q_PCV,GSK,(3,_6),1_ + 2.654166666666667 Q_PCV,GSK,(3,_6),2_ + 2.5729166666666665 Q_PCV,GSK,(3,_6),3_ - 1 N_GSK,(3,_6)_ >= 0
c508_1: -1.4702925579919498e9 W_GSK,(3,_6)_ - 1 Y_tilde_GSK,3_ + 1 N_GSK,(3,_6)_ >= -1.4702925579919498e9
c509_1: 3.4091666666666667 Q_MMR,GSK,(3,_7),1_ + 3.3409833333333334 Q_MMR,GSK,(3,_7),2_ + 3.2387083333333333 Q_MMR,GSK,(3,_7),3_ + 0.13693750000000002 Q_OPV,GSK,(3,_7),1_ + 0.13419875 Q_OPV,GSK,(3,_7),2_ + 0.13009062500000002 Q_OPV,GSK,(3,_7),3_ + 4.193333333333333 Q_HPV,GSK,(3,_7),1_ + 4.109466666666667 Q_HPV,GSK,(3,_7),2_ + 3.9836666666666667 Q_HPV,GSK,(3,_7),3_ + 1.3535000000000001 Q_Rotavirus,GSK,(3,_7),1_ + 1.3264300000000002 Q_Rotavirus,GSK,(3,_7),2_ + 1.285825 Q_Rotavirus,GSK,(3,_7),3_ + 2.7083333333333335 Q_PCV,GSK,(3,_7),1_ + 2.654166666666667 Q_PCV,GSK,(3,_7),2_ + 2.5729166666666665 Q_PCV,GSK,(3,_7),3_ - 1 N_GSK,(3,_7)_ >= 0
c510_1: -1.8378656974899368e9 W_GSK,(3,_7)_ - 1 Y_tilde_GSK,3_ + 1 N_GSK,(3,_7)_ >= -1.8378656974899368e9
c511_1: 3.3561666666666667 Q_MMR,GSK,(4,_4),1_ + 3.2890433333333333 Q_MMR,GSK,(4,_4),2_ + 3.1883583333333334 Q_MMR,GSK,(4,_4),3_ + 0.13693750000000002 Q_OPV,GSK,(4,_4),1_ + 0.13419875 Q_OPV,GSK,(4,_4),2_ + 0.13009062500000002 Q_OPV,GSK,(4,_4),3_ + 4.193333333333333 Q_HPV,GSK,(4,_4),1_ + 4.109466666666667 Q_HPV,GSK,(4,_4),2_ + 3.9836666666666667 Q_HPV,GSK,(4,_4),3_ + 1.3646111111111112 Q_Rotavirus,GSK,(4,_4),1_ + 1.337318888888889 Q_Rotavirus,GSK,(4,_4),2_ + 1.2963805555555556 Q_Rotavirus,GSK,(4,_4),3_ + 2.7875 Q_PCV,GSK,(4,_4),1_ + 2.73175 Q_PCV,GSK,(4,_4),2_ + 2.648125 Q_PCV,GSK,(4,_4),3_ - 1 N_GSK,(4,_4)_ >= 0
c512_1: -3.675731394979876e8 W_GSK,(4,_4)_ - 1 Y_tilde_GSK,4_ + 1 N_GSK,(4,_4)_ >= -3.675731394979876e8
c513_1: 3.3561666666666667 Q_MMR,GSK,(4,_5),1_ + 3.2890433333333333 Q_MMR,GSK,(4,_5),2_ + 3.1883583333333334 Q_MMR,GSK,(4,_5),3_ + 0.13693750000000002 Q_OPV,GSK,(4,_5),1_ + 0.13419875 Q_OPV,GSK,(4,_5),2_ + 0.13009062500000002 Q_OPV,GSK,(4,_5),3_ + 4.193333333333333 Q_HPV,GSK,(4,_5),1_ + 4.109466666666667 Q_HPV,GSK,(4,_5),2_ + 3.9836666666666667 Q_HPV,GSK,(4,_5),3_ + 1.3646111111111112 Q_Rotavirus,GSK,(4,_5),1_ + 1.337318888888889 Q_Rotavirus,GSK,(4,_5),2_ + 1.2963805555555556 Q_Rotavirus,GSK,(4,_5),3_ + 2.7875 Q_PCV,GSK,(4,_5),1_ + 2.73175 Q_PCV,GSK,(4,_5),2_ + 2.648125 Q_PCV,GSK,(4,_5),3_ - 1 N_GSK,(4,_5)_ >= 0
c514_1: -7.351462789959753e8 W_GSK,(4,_5)_ - 1 Y_tilde_GSK,4_ + 1 N_GSK,(4,_5)_ >= -7.351462789959753e8
c515_1: 3.3561666666666667 Q_MMR,GSK,(4,_6),1_ + 3.2890433333333333 Q_MMR,GSK,(4,_6),2_ + 3.1883583333333334 Q_MMR,GSK,(4,_6),3_ + 0.13693750000000002 Q_OPV,GSK,(4,_6),1_ + 0.13419875 Q_OPV,GSK,(4,_6),2_ + 0.13009062500000002 Q_OPV,GSK,(4,_6),3_ + 4.193333333333333 Q_HPV,GSK,(4,_6),1_ + 4.109466666666667 Q_HPV,GSK,(4,_6),2_ + 3.9836666666666667 Q_HPV,GSK,(4,_6),3_ + 1.3646111111111112 Q_Rotavirus,GSK,(4,_6),1_ + 1.337318888888889 Q_Rotavirus,GSK,(4,_6),2_ + 1.2963805555555556 Q_Rotavirus,GSK,(4,_6),3_ + 2.7875 Q_PCV,GSK,(4,_6),1_ + 2.73175 Q_PCV,GSK,(4,_6),2_ + 2.648125 Q_PCV,GSK,(4,_6),3_ - 1 N_GSK,(4,_6)_ >= 0
c516_1: -1.1027194184939628e9 W_GSK,(4,_6)_ - 1 Y_tilde_GSK,4_ + 1 N_GSK,(4,_6)_ >= -1.1027194184939628e9
c517_1: 3.3561666666666667 Q_MMR,GSK,(4,_7),1_ + 3.2890433333333333 Q_MMR,GSK,(4,_7),2_ + 3.1883583333333334 Q_MMR,GSK,(4,_7),3_ + 0.13693750000000002 Q_OPV,GSK,(4,_7),1_ + 0.13419875 Q_OPV,GSK,(4,_7),2_ + 0.13009062500000002 Q_OPV,GSK,(4,_7),3_ + 4.193333333333333 Q_HPV,GSK,(4,_7),1_ + 4.109466666666667 Q_HPV,GSK,(4,_7),2_ + 3.9836666666666667 Q_HPV,GSK,(4,_7),3_ + 1.3646111111111112 Q_Rotavirus,GSK,(4,_7),1_ + 1.337318888888889 Q_Rotavirus,GSK,(4,_7),2_ + 1.2963805555555556 Q_Rotavirus,GSK,(4,_7),3_ + 2.7875 Q_PCV,GSK,(4,_7),1_ + 2.73175 Q_PCV,GSK,(4,_7),2_ + 2.648125 Q_PCV,GSK,(4,_7),3_ - 1 N_GSK,(4,_7)_ >= 0
c518_1: -1.4702925579919498e9 W_GSK,(4,_7)_ - 1 Y_tilde_GSK,4_ + 1 N_GSK,(4,_7)_ >= -1.4702925579919498e9
c519_1: 3.3561666666666667 Q_MMR,GSK,(4,_8),1_ + 3.2890433333333333 Q_MMR,GSK,(4,_8),2_ + 3.1883583333333334 Q_MMR,GSK,(4,_8),3_ + 0.13693750000000002 Q_OPV,GSK,(4,_8),1_ + 0.13419875 Q_OPV,GSK,(4,_8),2_ + 0.13009062500000002 Q_OPV,GSK,(4,_8),3_ + 4.193333333333333 Q_HPV,GSK,(4,_8),1_ + 4.109466666666667 Q_HPV,GSK,(4,_8),2_ + 3.9836666666666667 Q_HPV,GSK,(4,_8),3_ + 1.3646111111111112 Q_Rotavirus,GSK,(4,_8),1_ + 1.337318888888889 Q_Rotavirus,GSK,(4,_8),2_ + 1.2963805555555556 Q_Rotavirus,GSK,(4,_8),3_ + 2.7875 Q_PCV,GSK,(4,_8),1_ + 2.73175 Q_PCV,GSK,(4,_8),2_ + 2.648125 Q_PCV,GSK,(4,_8),3_ - 1 N_GSK,(4,_8)_ >= 0
c520_1: -1.8378656974899368e9 W_GSK,(4,_8)_ - 1 Y_tilde_GSK,4_ + 1 N_GSK,(4,_8)_ >= -1.8378656974899368e9
c521_1: 3.3826666666666663 Q_MMR,GSK,(5,_5),1_ + 3.315013333333333 Q_MMR,GSK,(5,_5),2_ + 3.213533333333333 Q_MMR,GSK,(5,_5),3_ + 0.13693750000000002 Q_OPV,GSK,(5,_5),1_ + 0.13419875 Q_OPV,GSK,(5,_5),2_ + 0.13009062500000002 Q_OPV,GSK,(5,_5),3_ + 4.193333333333333 Q_HPV,GSK,(5,_5),1_ + 4.109466666666667 Q_HPV,GSK,(5,_5),2_ + 3.9836666666666667 Q_HPV,GSK,(5,_5),3_ + 1.3437777777777777 Q_Rotavirus,GSK,(5,_5),1_ + 1.3169022222222222 Q_Rotavirus,GSK,(5,_5),2_ + 1.2765888888888888 Q_Rotavirus,GSK,(5,_5),3_ + 2.747916666666667 Q_PCV,GSK,(5,_5),1_ + 2.6929583333333333 Q_PCV,GSK,(5,_5),2_ + 2.610520833333333 Q_PCV,GSK,(5,_5),3_ - 1 N_GSK,(5,_5)_ >= 0
c522_1: -3.675731394979876e8 W_GSK,(5,_5)_ - 1 Y_tilde_GSK,5_ + 1 N_GSK,(5,_5)_ >= -3.675731394979876e8
c523_1: 3.3826666666666663 Q_MMR,GSK,(5,_6),1_ + 3.315013333333333 Q_MMR,GSK,(5,_6),2_ + 3.213533333333333 Q_MMR,GSK,(5,_6),3_ + 0.13693750000000002 Q_OPV,GSK,(5,_6),1_ + 0.13419875 Q_OPV,GSK,(5,_6),2_ + 0.13009062500000002 Q_OPV,GSK,(5,_6),3_ + 4.193333333333333 Q_HPV,GSK,(5,_6),1_ + 4.109466666666667 Q_HPV,GSK,(5,_6),2_ + 3.9836666666666667 Q_HPV,GSK,(5,_6),3_ + 1.3437777777777777 Q_Rotavirus,GSK,(5,_6),1_ + 1.3169022222222222 Q_Rotavirus,GSK,(5,_6),2_ + 1.2765888888888888 Q_Rotavirus,GSK,(5,_6),3_ + 2.747916666666667 Q_PCV,GSK,(5,_6),1_ + 2.6929583333333333 Q_PCV,GSK,(5,_6),2_ + 2.610520833333333 Q_PCV,GSK,(5,_6),3_ - 1 N_GSK,(5,_6)_ >= 0
c524_1: -7.351462789959753e8 W_GSK,(5,_6)_ - 1 Y_tilde_GSK,5_ + 1 N_GSK,(5,_6)_ >= -7.351462789959753e8
c525_1: 3.3826666666666663 Q_MMR,GSK,(5,_7),1_ + 3.315013333333333 Q_MMR,GSK,(5,_7),2_ + 3.213533333333333 Q_MMR,GSK,(5,_7),3_ + 0.13693750000000002 Q_OPV,GSK,(5,_7),1_ + 0.13419875 Q_OPV,GSK,(5,_7),2_ + 0.13009062500000002 Q_OPV,GSK,(5,_7),3_ + 4.193333333333333 Q_HPV,GSK,(5,_7),1_ + 4.109466666666667 Q_HPV,GSK,(5,_7),2_ + 3.9836666666666667 Q_HPV,GSK,(5,_7),3_ + 1.3437777777777777 Q_Rotavirus,GSK,(5,_7),1_ + 1.3169022222222222 Q_Rotavirus,GSK,(5,_7),2_ + 1.2765888888888888 Q_Rotavirus,GSK,(5,_7),3_ + 2.747916666666667 Q_PCV,GSK,(5,_7),1_ + 2.6929583333333333 Q_PCV,GSK,(5,_7),2_ + 2.610520833333333 Q_PCV,GSK,(5,_7),3_ - 1 N_GSK,(5,_7)_ >= 0
c526_1: -1.1027194184939628e9 W_GSK,(5,_7)_ - 1 Y_tilde_GSK,5_ + 1 N_GSK,(5,_7)_ >= -1.1027194184939628e9
c527_1: 3.3826666666666663 Q_MMR,GSK,(5,_8),1_ + 3.315013333333333 Q_MMR,GSK,(5,_8),2_ + 3.213533333333333 Q_MMR,GSK,(5,_8),3_ + 0.13693750000000002 Q_OPV,GSK,(5,_8),1_ + 0.13419875 Q_OPV,GSK,(5,_8),2_ + 0.13009062500000002 Q_OPV,GSK,(5,_8),3_ + 4.193333333333333 Q_HPV,GSK,(5,_8),1_ + 4.109466666666667 Q_HPV,GSK,(5,_8),2_ + 3.9836666666666667 Q_HPV,GSK,(5,_8),3_ + 1.3437777777777777 Q_Rotavirus,GSK,(5,_8),1_ + 1.3169022222222222 Q_Rotavirus,GSK,(5,_8),2_ + 1.2765888888888888 Q_Rotavirus,GSK,(5,_8),3_ + 2.747916666666667 Q_PCV,GSK,(5,_8),1_ + 2.6929583333333333 Q_PCV,GSK,(5,_8),2_ + 2.610520833333333 Q_PCV,GSK,(5,_8),3_ - 1 N_GSK,(5,_8)_ >= 0
c528_1: -1.4702925579919498e9 W_GSK,(5,_8)_ - 1 Y_tilde_GSK,5_ + 1 N_GSK,(5,_8)_ >= -1.4702925579919498e9
c529_1: 3.3826666666666663 Q_MMR,GSK,(5,_9),1_ + 3.315013333333333 Q_MMR,GSK,(5,_9),2_ + 3.213533333333333 Q_MMR,GSK,(5,_9),3_ + 0.13693750000000002 Q_OPV,GSK,(5,_9),1_ + 0.13419875 Q_OPV,GSK,(5,_9),2_ + 0.13009062500000002 Q_OPV,GSK,(5,_9),3_ + 4.193333333333333 Q_HPV,GSK,(5,_9),1_ + 4.109466666666667 Q_HPV,GSK,(5,_9),2_ + 3.9836666666666667 Q_HPV,GSK,(5,_9),3_ + 1.3437777777777777 Q_Rotavirus,GSK,(5,_9),1_ + 1.3169022222222222 Q_Rotavirus,GSK,(5,_9),2_ + 1.2765888888888888 Q_Rotavirus,GSK,(5,_9),3_ + 2.747916666666667 Q_PCV,GSK,(5,_9),1_ + 2.6929583333333333 Q_PCV,GSK,(5,_9),2_ + 2.610520833333333 Q_PCV,GSK,(5,_9),3_ - 1 N_GSK,(5,_9)_ >= 0
c530_1: -1.8378656974899368e9 W_GSK,(5,_9)_ - 1 Y_tilde_GSK,5_ + 1 N_GSK,(5,_9)_ >= -1.8378656974899368e9
c531_1: 3.3694166666666665 Q_MMR,GSK,(6,_6),1_ + 3.302028333333333 Q_MMR,GSK,(6,_6),2_ + 3.200945833333333 Q_MMR,GSK,(6,_6),3_ + 0.13693750000000002 Q_OPV,GSK,(6,_6),1_ + 0.13419875 Q_OPV,GSK,(6,_6),2_ + 0.13009062500000002 Q_OPV,GSK,(6,_6),3_ + 4.193333333333333 Q_HPV,GSK,(6,_6),1_ + 4.109466666666667 Q_HPV,GSK,(6,_6),2_ + 3.9836666666666667 Q_HPV,GSK,(6,_6),3_ + 1.3548888888888888 Q_Rotavirus,GSK,(6,_6),1_ + 1.327791111111111 Q_Rotavirus,GSK,(6,_6),2_ + 1.2871444444444442 Q_Rotavirus,GSK,(6,_6),3_ + 2.767708333333333 Q_PCV,GSK,(6,_6),1_ + 2.7123541666666666 Q_PCV,GSK,(6,_6),2_ + 2.6293229166666663 Q_PCV,GSK,(6,_6),3_ - 1 N_GSK,(6,_6)_ >= 0
c532_1: -3.675731394979876e8 W_GSK,(6,_6)_ - 1 Y_tilde_GSK,6_ + 1 N_GSK,(6,_6)_ >= -3.675731394979876e8
c533_1: 3.3694166666666665 Q_MMR,GSK,(6,_7),1_ + 3.302028333333333 Q_MMR,GSK,(6,_7),2_ + 3.200945833333333 Q_MMR,GSK,(6,_7),3_ + 0.13693750000000002 Q_OPV,GSK,(6,_7),1_ + 0.13419875 Q_OPV,GSK,(6,_7),2_ + 0.13009062500000002 Q_OPV,GSK,(6,_7),3_ + 4.193333333333333 Q_HPV,GSK,(6,_7),1_ + 4.109466666666667 Q_HPV,GSK,(6,_7),2_ + 3.9836666666666667 Q_HPV,GSK,(6,_7),3_ + 1.3548888888888888 Q_Rotavirus,GSK,(6,_7),1_ + 1.327791111111111 Q_Rotavirus,GSK,(6,_7),2_ + 1.2871444444444442 Q_Rotavirus,GSK,(6,_7),3_ + 2.767708333333333 Q_PCV,GSK,(6,_7),1_ + 2.7123541666666666 Q_PCV,GSK,(6,_7),2_ + 2.6293229166666663 Q_PCV,GSK,(6,_7),3_ - 1 N_GSK,(6,_7)_ >= 0
c534_1: -7.351462789959753e8 W_GSK,(6,_7)_ - 1 Y_tilde_GSK,6_ + 1 N_GSK,(6,_7)_ >= -7.351462789959753e8
c535_1: 3.3694166666666665 Q_MMR,GSK,(6,_8),1_ + 3.302028333333333 Q_MMR,GSK,(6,_8),2_ + 3.200945833333333 Q_MMR,GSK,(6,_8),3_ + 0.13693750000000002 Q_OPV,GSK,(6,_8),1_ + 0.13419875 Q_OPV,GSK,(6,_8),2_ + 0.13009062500000002 Q_OPV,GSK,(6,_8),3_ + 4.193333333333333 Q_HPV,GSK,(6,_8),1_ + 4.109466666666667 Q_HPV,GSK,(6,_8),2_ + 3.9836666666666667 Q_HPV,GSK,(6,_8),3_ + 1.3548888888888888 Q_Rotavirus,GSK,(6,_8),1_ + 1.327791111111111 Q_Rotavirus,GSK,(6,_8),2_ + 1.2871444444444442 Q_Rotavirus,GSK,(6,_8),3_ + 2.767708333333333 Q_PCV,GSK,(6,_8),1_ + 2.7123541666666666 Q_PCV,GSK,(6,_8),2_ + 2.6293229166666663 Q_PCV,GSK,(6,_8),3_ - 1 N_GSK,(6,_8)_ >= 0
c536_1: -1.1027194184939628e9 W_GSK,(6,_8)_ - 1 Y_tilde_GSK,6_ + 1 N_GSK,(6,_8)_ >= -1.1027194184939628e9
c537_1: 3.3694166666666665 Q_MMR,GSK,(6,_9),1_ + 3.302028333333333 Q_MMR,GSK,(6,_9),2_ + 3.200945833333333 Q_MMR,GSK,(6,_9),3_ + 0.13693750000000002 Q_OPV,GSK,(6,_9),1_ + 0.13419875 Q_OPV,GSK,(6,_9),2_ + 0.13009062500000002 Q_OPV,GSK,(6,_9),3_ + 4.193333333333333 Q_HPV,GSK,(6,_9),1_ + 4.109466666666667 Q_HPV,GSK,(6,_9),2_ + 3.9836666666666667 Q_HPV,GSK,(6,_9),3_ + 1.3548888888888888 Q_Rotavirus,GSK,(6,_9),1_ + 1.327791111111111 Q_Rotavirus,GSK,(6,_9),2_ + 1.2871444444444442 Q_Rotavirus,GSK,(6,_9),3_ + 2.767708333333333 Q_PCV,GSK,(6,_9),1_ + 2.7123541666666666 Q_PCV,GSK,(6,_9),2_ + 2.6293229166666663 Q_PCV,GSK,(6,_9),3_ - 1 N_GSK,(6,_9)_ >= 0
c538_1: -1.4702925579919498e9 W_GSK,(6,_9)_ - 1 Y_tilde_GSK,6_ + 1 N_GSK,(6,_9)_ >= -1.4702925579919498e9
c539_1: 3.3694166666666665 Q_MMR,GSK,(6,_10),1_ + 3.302028333333333 Q_MMR,GSK,(6,_10),2_ + 3.200945833333333 Q_MMR,GSK,(6,_10),3_ + 0.13693750000000002 Q_OPV,GSK,(6,_10),1_ + 0.13419875 Q_OPV,GSK,(6,_10),2_ + 0.13009062500000002 Q_OPV,GSK,(6,_10),3_ + 4.193333333333333 Q_HPV,GSK,(6,_10),1_ + 4.109466666666667 Q_HPV,GSK,(6,_10),2_ + 3.9836666666666667 Q_HPV,GSK,(6,_10),3_ + 1.3548888888888888 Q_Rotavirus,GSK,(6,_10),1_ + 1.327791111111111 Q_Rotavirus,GSK,(6,_10),2_ + 1.2871444444444442 Q_Rotavirus,GSK,(6,_10),3_ + 2.767708333333333 Q_PCV,GSK,(6,_10),1_ + 2.7123541666666666 Q_PCV,GSK,(6,_10),2_ + 2.6293229166666663 Q_PCV,GSK,(6,_10),3_ - 1 N_GSK,(6,_10)_ >= 0
c540_1: -1.8378656974899368e9 W_GSK,(6,_10)_ - 1 Y_tilde_GSK,6_ + 1 N_GSK,(6,_10)_ >= -1.8378656974899368e9
c541_1: 3.3760416666666666 Q_MMR,GSK,(7,_7),1_ + 3.308520833333333 Q_MMR,GSK,(7,_7),2_ + 3.207239583333333 Q_MMR,GSK,(7,_7),3_ + 0.13693750000000002 Q_OPV,GSK,(7,_7),1_ + 0.13419875 Q_OPV,GSK,(7,_7),2_ + 0.13009062500000002 Q_OPV,GSK,(7,_7),3_ + 4.193333333333333 Q_HPV,GSK,(7,_7),1_ + 4.109466666666667 Q_HPV,GSK,(7,_7),2_ + 3.9836666666666667 Q_HPV,GSK,(7,_7),3_ + 1.3549595555555554 Q_Rotavirus,GSK,(7,_7),1_ + 1.3278603644444442 Q_Rotavirus,GSK,(7,_7),2_ + 1.2872115777777775 Q_Rotavirus,GSK,(7,_7),3_ + 2.7578125 Q_PCV,GSK,(7,_7),1_ + 2.70265625 Q_PCV,GSK,(7,_7),2_ + 2.6199218749999997 Q_PCV,GSK,(7,_7),3_ - 1 N_GSK,(7,_7)_ >= 0
c542_1: -3.675731394979876e8 W_GSK,(7,_7)_ - 1 Y_tilde_GSK,7_ + 1 N_GSK,(7,_7)_ >= -3.675731394979876e8
c543_1: 3.3760416666666666 Q_MMR,GSK,(7,_8),1_ + 3.308520833333333 Q_MMR,GSK,(7,_8),2_ + 3.207239583333333 Q_MMR,GSK,(7,_8),3_ + 0.13693750000000002 Q_OPV,GSK,(7,_8),1_ + 0.13419875 Q_OPV,GSK,(7,_8),2_ + 0.13009062500000002 Q_OPV,GSK,(7,_8),3_ + 4.193333333333333 Q_HPV,GSK,(7,_8),1_ + 4.109466666666667 Q_HPV,GSK,(7,_8),2_ + 3.9836666666666667 Q_HPV,GSK,(7,_8),3_ + 1.3549595555555554 Q_Rotavirus,GSK,(7,_8),1_ + 1.3278603644444442 Q_Rotavirus,GSK,(7,_8),2_ + 1.2872115777777775 Q_Rotavirus,GSK,(7,_8),3_ + 2.7578125 Q_PCV,GSK,(7,_8),1_ + 2.70265625 Q_PCV,GSK,(7,_8),2_ + 2.6199218749999997 Q_PCV,GSK,(7,_8),3_ - 1 N_GSK,(7,_8)_ >= 0
c544_1: -7.351462789959753e8 W_GSK,(7,_8)_ - 1 Y_tilde_GSK,7_ + 1 N_GSK,(7,_8)_ >= -7.351462789959753e8
c545_1: 3.3760416666666666 Q_MMR,GSK,(7,_9),1_ + 3.308520833333333 Q_MMR,GSK,(7,_9),2_ + 3.207239583333333 Q_MMR,GSK,(7,_9),3_ + 0.13693750000000002 Q_OPV,GSK,(7,_9),1_ + 0.13419875 Q_OPV,GSK,(7,_9),2_ + 0.13009062500000002 Q_OPV,GSK,(7,_9),3_ + 4.193333333333333 Q_HPV,GSK,(7,_9),1_ + 4.109466666666667 Q_HPV,GSK,(7,_9),2_ + 3.9836666666666667 Q_HPV,GSK,(7,_9),3_ + 1.3549595555555554 Q_Rotavirus,GSK,(7,_9),1_ + 1.3278603644444442 Q_Rotavirus,GSK,(7,_9),2_ + 1.2872115777777775 Q_Rotavirus,GSK,(7,_9),3_ + 2.7578125 Q_PCV,GSK,(7,_9),1_ + 2.70265625 Q_PCV,GSK,(7,_9),2_ + 2.6199218749999997 Q_PCV,GSK,(7,_9),3_ - 1 N_GSK,(7,_9)_ >= 0
c546_1: -1.1027194184939628e9 W_GSK,(7,_9)_ - 1 Y_tilde_GSK,7_ + 1 N_GSK,(7,_9)_ >= -1.1027194184939628e9
c547_1: 3.3760416666666666 Q_MMR,GSK,(7,_10),1_ + 3.308520833333333 Q_MMR,GSK,(7,_10),2_ + 3.207239583333333 Q_MMR,GSK,(7,_10),3_ + 0.13693750000000002 Q_OPV,GSK,(7,_10),1_ + 0.13419875 Q_OPV,GSK,(7,_10),2_ + 0.13009062500000002 Q_OPV,GSK,(7,_10),3_ + 4.193333333333333 Q_HPV,GSK,(7,_10),1_ + 4.109466666666667 Q_HPV,GSK,(7,_10),2_ + 3.9836666666666667 Q_HPV,GSK,(7,_10),3_ + 1.3549595555555554 Q_Rotavirus,GSK,(7,_10),1_ + 1.3278603644444442 Q_Rotavirus,GSK,(7,_10),2_ + 1.2872115777777775 Q_Rotavirus,GSK,(7,_10),3_ + 2.7578125 Q_PCV,GSK,(7,_10),1_ + 2.70265625 Q_PCV,GSK,(7,_10),2_ + 2.6199218749999997 Q_PCV,GSK,(7,_10),3_ - 1 N_GSK,(7,_10)_ >= 0
c548_1: -1.4702925579919498e9 W_GSK,(7,_10)_ - 1 Y_tilde_GSK,7_ + 1 N_GSK,(7,_10)_ >= -1.4702925579919498e9
c549_1: 3.372729166666667 Q_MMR,GSK,(8,_8),1_ + 3.3052745833333335 Q_MMR,GSK,(8,_8),2_ + 3.2040927083333335 Q_MMR,GSK,(8,_8),3_ + 0.13693750000000002 Q_OPV,GSK,(8,_8),1_ + 0.13419875 Q_OPV,GSK,(8,_8),2_ + 0.13009062500000002 Q_OPV,GSK,(8,_8),3_ + 4.193333333333333 Q_HPV,GSK,(8,_8),1_ + 4.109466666666667 Q_HPV,GSK,(8,_8),2_ + 3.9836666666666667 Q_HPV,GSK,(8,_8),3_ + 1.3672171111111109 Q_Rotavirus,GSK,(8,_8),1_ + 1.3398727688888887 Q_Rotavirus,GSK,(8,_8),2_ + 1.2988562555555552 Q_Rotavirus,GSK,(8,_8),3_ + 2.762760416666667 Q_PCV,GSK,(8,_8),1_ + 2.7075052083333335 Q_PCV,GSK,(8,_8),2_ + 2.6246223958333337 Q_PCV,GSK,(8,_8),3_ - 1 N_GSK,(8,_8)_ >= 0
c550_1: -3.675731394979876e8 W_GSK,(8,_8)_ - 1 Y_tilde_GSK,8_ + 1 N_GSK,(8,_8)_ >= -3.675731394979876e8
c551_1: 3.372729166666667 Q_MMR,GSK,(8,_9),1_ + 3.3052745833333335 Q_MMR,GSK,(8,_9),2_ + 3.2040927083333335 Q_MMR,GSK,(8,_9),3_ + 0.13693750000000002 Q_OPV,GSK,(8,_9),1_ + 0.13419875 Q_OPV,GSK,(8,_9),2_ + 0.13009062500000002 Q_OPV,GSK,(8,_9),3_ + 4.193333333333333 Q_HPV,GSK,(8,_9),1_ + 4.109466666666667 Q_HPV,GSK,(8,_9),2_ + 3.9836666666666667 Q_HPV,GSK,(8,_9),3_ + 1.3672171111111109 Q_Rotavirus,GSK,(8,_9),1_ + 1.3398727688888887 Q_Rotavirus,GSK,(8,_9),2_ + 1.2988562555555552 Q_Rotavirus,GSK,(8,_9),3_ + 2.762760416666667 Q_PCV,GSK,(8,_9),1_ + 2.7075052083333335 Q_PCV,GSK,(8,_9),2_ + 2.6246223958333337 Q_PCV,GSK,(8,_9),3_ - 1 N_GSK,(8,_9)_ >= 0
c552_1: -7.351462789959753e8 W_GSK,(8,_9)_ - 1 Y_tilde_GSK,8_ + 1 N_GSK,(8,_9)_ >= -7.351462789959753e8
c553_1: 3.372729166666667 Q_MMR,GSK,(8,_10),1_ + 3.3052745833333335 Q_MMR,GSK,(8,_10),2_ + 3.2040927083333335 Q_MMR,GSK,(8,_10),3_ + 0.13693750000000002 Q_OPV,GSK,(8,_10),1_ + 0.13419875 Q_OPV,GSK,(8,_10),2_ + 0.13009062500000002 Q_OPV,GSK,(8,_10),3_ + 4.193333333333333 Q_HPV,GSK,(8,_10),1_ + 4.109466666666667 Q_HPV,GSK,(8,_10),2_ + 3.9836666666666667 Q_HPV,GSK,(8,_10),3_ + 1.3672171111111109 Q_Rotavirus,GSK,(8,_10),1_ + 1.3398727688888887 Q_Rotavirus,GSK,(8,_10),2_ + 1.2988562555555552 Q_Rotavirus,GSK,(8,_10),3_ + 2.762760416666667 Q_PCV,GSK,(8,_10),1_ + 2.7075052083333335 Q_PCV,GSK,(8,_10),2_ + 2.6246223958333337 Q_PCV,GSK,(8,_10),3_ - 1 N_GSK,(8,_10)_ >= 0
c554_1: -1.1027194184939628e9 W_GSK,(8,_10)_ - 1 Y_tilde_GSK,8_ + 1 N_GSK,(8,_10)_ >= -1.1027194184939628e9
c555_1: 3.3743854166666667 Q_MMR,GSK,(9,_9),1_ + 3.3068977083333335 Q_MMR,GSK,(9,_9),2_ + 3.2056661458333333 Q_MMR,GSK,(9,_9),3_ + 0.13693750000000002 Q_OPV,GSK,(9,_9),1_ + 0.13419875 Q_OPV,GSK,(9,_9),2_ + 0.13009062500000002 Q_OPV,GSK,(9,_9),3_ + 4.193333333333333 Q_HPV,GSK,(9,_9),1_ + 4.109466666666667 Q_HPV,GSK,(9,_9),2_ + 3.9836666666666667 Q_HPV,GSK,(9,_9),3_ + 1.3610883333333332 Q_Rotavirus,GSK,(9,_9),1_ + 1.3338665666666665 Q_Rotavirus,GSK,(9,_9),2_ + 1.2930339166666664 Q_Rotavirus,GSK,(9,_9),3_ + 2.7602864583333333 Q_PCV,GSK,(9,_9),1_ + 2.7050807291666668 Q_PCV,GSK,(9,_9),2_ + 2.6222721354166665 Q_PCV,GSK,(9,_9),3_ - 1 N_GSK,(9,_9)_ >= 0
c556_1: -3.675731394979876e8 W_GSK,(9,_9)_ - 1 Y_tilde_GSK,9_ + 1 N_GSK,(9,_9)_ >= -3.675731394979876e8
c557_1: 3.3743854166666667 Q_MMR,GSK,(9,_10),1_ + 3.3068977083333335 Q_MMR,GSK,(9,_10),2_ + 3.2056661458333333 Q_MMR,GSK,(9,_10),3_ + 0.13693750000000002 Q_OPV,GSK,(9,_10),1_ + 0.13419875 Q_OPV,GSK,(9,_10),2_ + 0.13009062500000002 Q_OPV,GSK,(9,_10),3_ + 4.193333333333333 Q_HPV,GSK,(9,_10),1_ + 4.109466666666667 Q_HPV,GSK,(9,_10),2_ + 3.9836666666666667 Q_HPV,GSK,(9,_10),3_ + 1.3610883333333332 Q_Rotavirus,GSK,(9,_10),1_ + 1.3338665666666665 Q_Rotavirus,GSK,(9,_10),2_ + 1.2930339166666664 Q_Rotavirus,GSK,(9,_10),3_ + 2.7602864583333333 Q_PCV,GSK,(9,_10),1_ + 2.7050807291666668 Q_PCV,GSK,(9,_10),2_ + 2.6222721354166665 Q_PCV,GSK,(9,_10),3_ - 1 N_GSK,(9,_10)_ >= 0
c558_1: -7.351462789959753e8 W_GSK,(9,_10)_ - 1 Y_tilde_GSK,9_ + 1 N_GSK,(9,_10)_ >= -7.351462789959753e8
c559_1: 3.3735572916666667 Q_MMR,GSK,(10,_10),1_ + 3.3060861458333335 Q_MMR,GSK,(10,_10),2_ + 3.204879427083333 Q_MMR,GSK,(10,_10),3_ + 0.13693750000000002 Q_OPV,GSK,(10,_10),1_ + 0.13419875 Q_OPV,GSK,(10,_10),2_ + 0.13009062500000002 Q_OPV,GSK,(10,_10),3_ + 4.193333333333333 Q_HPV,GSK,(10,_10),1_ + 4.109466666666667 Q_HPV,GSK,(10,_10),2_ + 3.9836666666666667 Q_HPV,GSK,(10,_10),3_ + 1.3641527222222223 Q_Rotavirus,GSK,(10,_10),1_ + 1.3368696677777778 Q_Rotavirus,GSK,(10,_10),2_ + 1.295945086111111 Q_Rotavirus,GSK,(10,_10),3_ + 2.7615234374999997 Q_PCV,GSK,(10,_10),1_ + 2.7062929687499997 Q_PCV,GSK,(10,_10),2_ + 2.6234472656249994 Q_PCV,GSK,(10,_10),3_ - 1 N_GSK,(10,_10)_ >= 0
c560_1: -3.675731394979876e8 W_GSK,(10,_10)_ - 1 Y_tilde_GSK,10_ + 1 N_GSK,(10,_10)_ >= -3.675731394979876e8
c561_1: 0.13305 Q_OPV,Haffkine_Bio,(1,_1),1_ + 0.130389 Q_OPV,Haffkine_Bio,(1,_1),2_ + 0.1263975 Q_OPV,Haffkine_Bio,(1,_1),3_ - 1 N_Haffkine_Bio,(1,_1)_ >= 0
c562_1: -4.319700000000001e6 W_Haffkine_Bio,(1,_1)_ - 1 Y_tilde_Haffkine_Bio,1_ + 1 N_Haffkine_Bio,(1,_1)_ >= -4.319700000000001e6
c563_1: 0.13305 Q_OPV,Haffkine_Bio,(1,_2),1_ + 0.130389 Q_OPV,Haffkine_Bio,(1,_2),2_ + 0.1263975 Q_OPV,Haffkine_Bio,(1,_2),3_ - 1 N_Haffkine_Bio,(1,_2)_ >= 0
c564_1: -8.639400000000002e6 W_Haffkine_Bio,(1,_2)_ - 1 Y_tilde_Haffkine_Bio,1_ + 1 N_Haffkine_Bio,(1,_2)_ >= -8.639400000000002e6
c565_1: 0.13305 Q_OPV,Haffkine_Bio,(1,_3),1_ + 0.130389 Q_OPV,Haffkine_Bio,(1,_3),2_ + 0.1263975 Q_OPV,Haffkine_Bio,(1,_3),3_ - 1 N_Haffkine_Bio,(1,_3)_ >= 0
c566_1: -1.2959100000000002e7 W_Haffkine_Bio,(1,_3)_ - 1 Y_tilde_Haffkine_Bio,1_ + 1 N_Haffkine_Bio,(1,_3)_ >= -1.2959100000000002e7
c567_1: 0.13305 Q_OPV,Haffkine_Bio,(1,_4),1_ + 0.130389 Q_OPV,Haffkine_Bio,(1,_4),2_ + 0.1263975 Q_OPV,Haffkine_Bio,(1,_4),3_ - 1 N_Haffkine_Bio,(1,_4)_ >= 0
c568_1: -1.7278800000000004e7 W_Haffkine_Bio,(1,_4)_ - 1 Y_tilde_Haffkine_Bio,1_ + 1 N_Haffkine_Bio,(1,_4)_ >= -1.7278800000000004e7
c569_1: 0.13305 Q_OPV,Haffkine_Bio,(1,_5),1_ + 0.130389 Q_OPV,Haffkine_Bio,(1,_5),2_ + 0.1263975 Q_OPV,Haffkine_Bio,(1,_5),3_ - 1 N_Haffkine_Bio,(1,_5)_ >= 0
c570_1: -2.1598500000000004e7 W_Haffkine_Bio,(1,_5)_ - 1 Y_tilde_Haffkine_Bio,1_ + 1 N_Haffkine_Bio,(1,_5)_ >= -2.1598500000000004e7
c571_1: 0.13693750000000002 Q_OPV,Haffkine_Bio,(2,_2),1_ + 0.13419875 Q_OPV,Haffkine_Bio,(2,_2),2_ + 0.13009062500000002 Q_OPV,Haffkine_Bio,(2,_2),3_ - 1 N_Haffkine_Bio,(2,_2)_ >= 0
c572_1: -4.319700000000001e6 W_Haffkine_Bio,(2,_2)_ - 1 Y_tilde_Haffkine_Bio,2_ + 1 N_Haffkine_Bio,(2,_2)_ >= -4.319700000000001e6
c573_1: 0.13693750000000002 Q_OPV,Haffkine_Bio,(2,_3),1_ + 0.13419875 Q_OPV,Haffkine_Bio,(2,_3),2_ + 0.13009062500000002 Q_OPV,Haffkine_Bio,(2,_3),3_ - 1 N_Haffkine_Bio,(2,_3)_ >= 0
c574_1: -8.639400000000002e6 W_Haffkine_Bio,(2,_3)_ - 1 Y_tilde_Haffkine_Bio,2_ + 1 N_Haffkine_Bio,(2,_3)_ >= -8.639400000000002e6
c575_1: 0.13693750000000002 Q_OPV,Haffkine_Bio,(2,_4),1_ + 0.13419875 Q_OPV,Haffkine_Bio,(2,_4),2_ + 0.13009062500000002 Q_OPV,Haffkine_Bio,(2,_4),3_ - 1 N_Haffkine_Bio,(2,_4)_ >= 0
c576_1: -1.2959100000000002e7 W_Haffkine_Bio,(2,_4)_ - 1 Y_tilde_Haffkine_Bio,2_ + 1 N_Haffkine_Bio,(2,_4)_ >= -1.2959100000000002e7
c577_1: 0.13693750000000002 Q_OPV,Haffkine_Bio,(2,_5),1_ + 0.13419875 Q_OPV,Haffkine_Bio,(2,_5),2_ + 0.13009062500000002 Q_OPV,Haffkine_Bio,(2,_5),3_ - 1 N_Haffkine_Bio,(2,_5)_ >= 0
c578_1: -1.7278800000000004e7 W_Haffkine_Bio,(2,_5)_ - 1 Y_tilde_Haffkine_Bio,2_ + 1 N_Haffkine_Bio,(2,_5)_ >= -1.7278800000000004e7
c579_1: 0.13693750000000002 Q_OPV,Haffkine_Bio,(2,_6),1_ + 0.13419875 Q_OPV,Haffkine_Bio,(2,_6),2_ + 0.13009062500000002 Q_OPV,Haffkine_Bio,(2,_6),3_ - 1 N_Haffkine_Bio,(2,_6)_ >= 0
c580_1: -2.1598500000000004e7 W_Haffkine_Bio,(2,_6)_ - 1 Y_tilde_Haffkine_Bio,2_ + 1 N_Haffkine_Bio,(2,_6)_ >= -2.1598500000000004e7
c581_1: 0.13693750000000002 Q_OPV,Haffkine_Bio,(3,_3),1_ + 0.13419875 Q_OPV,Haffkine_Bio,(3,_3),2_ + 0.13009062500000002 Q_OPV,Haffkine_Bio,(3,_3),3_ - 1 N_Haffkine_Bio,(3,_3)_ >= 0
c582_1: -4.319700000000001e6 W_Haffkine_Bio,(3,_3)_ - 1 Y_tilde_Haffkine_Bio,3_ + 1 N_Haffkine_Bio,(3,_3)_ >= -4.319700000000001e6
c583_1: 0.13693750000000002 Q_OPV,Haffkine_Bio,(3,_4),1_ + 0.13419875 Q_OPV,Haffkine_Bio,(3,_4),2_ + 0.13009062500000002 Q_OPV,Haffkine_Bio,(3,_4),3_ - 1 N_Haffkine_Bio,(3,_4)_ >= 0
c584_1: -8.639400000000002e6 W_Haffkine_Bio,(3,_4)_ - 1 Y_tilde_Haffkine_Bio,3_ + 1 N_Haffkine_Bio,(3,_4)_ >= -8.639400000000002e6
c585_1: 0.13693750000000002 Q_OPV,Haffkine_Bio,(3,_5),1_ + 0.13419875 Q_OPV,Haffkine_Bio,(3,_5),2_ + 0.13009062500000002 Q_OPV,Haffkine_Bio,(3,_5),3_ - 1 N_Haffkine_Bio,(3,_5)_ >= 0
c586_1: -1.2959100000000002e7 W_Haffkine_Bio,(3,_5)_ - 1 Y_tilde_Haffkine_Bio,3_ + 1 N_Haffkine_Bio,(3,_5)_ >= -1.2959100000000002e7
c587_1: 0.13693750000000002 Q_OPV,Haffkine_Bio,(3,_6),1_ + 0.13419875 Q_OPV,Haffkine_Bio,(3,_6),2_ + 0.13009062500000002 Q_OPV,Haffkine_Bio,(3,_6),3_ - 1 N_Haffkine_Bio,(3,_6)_ >= 0
c588_1: -1.7278800000000004e7 W_Haffkine_Bio,(3,_6)_ - 1 Y_tilde_Haffkine_Bio,3_ + 1 N_Haffkine_Bio,(3,_6)_ >= -1.7278800000000004e7
c589_1: 0.13693750000000002 Q_OPV,Haffkine_Bio,(3,_7),1_ + 0.13419875 Q_OPV,Haffkine_Bio,(3,_7),2_ + 0.13009062500000002 Q_OPV,Haffkine_Bio,(3,_7),3_ - 1 N_Haffkine_Bio,(3,_7)_ >= 0
c590_1: -2.1598500000000004e7 W_Haffkine_Bio,(3,_7)_ - 1 Y_tilde_Haffkine_Bio,3_ + 1 N_Haffkine_Bio,(3,_7)_ >= -2.1598500000000004e7
c591_1: 0.13693750000000002 Q_OPV,Haffkine_Bio,(4,_4),1_ + 0.13419875 Q_OPV,Haffkine_Bio,(4,_4),2_ + 0.13009062500000002 Q_OPV,Haffkine_Bio,(4,_4),3_ - 1 N_Haffkine_Bio,(4,_4)_ >= 0
c592_1: -4.319700000000001e6 W_Haffkine_Bio,(4,_4)_ - 1 Y_tilde_Haffkine_Bio,4_ + 1 N_Haffkine_Bio,(4,_4)_ >= -4.319700000000001e6
c593_1: 0.13693750000000002 Q_OPV,Haffkine_Bio,(4,_5),1_ + 0.13419875 Q_OPV,Haffkine_Bio,(4,_5),2_ + 0.13009062500000002 Q_OPV,Haffkine_Bio,(4,_5),3_ - 1 N_Haffkine_Bio,(4,_5)_ >= 0
c594_1: -8.639400000000002e6 W_Haffkine_Bio,(4,_5)_ - 1 Y_tilde_Haffkine_Bio,4_ + 1 N_Haffkine_Bio,(4,_5)_ >= -8.639400000000002e6
c595_1: 0.13693750000000002 Q_OPV,Haffkine_Bio,(4,_6),1_ + 0.13419875 Q_OPV,Haffkine_Bio,(4,_6),2_ + 0.13009062500000002 Q_OPV,Haffkine_Bio,(4,_6),3_ - 1 N_Haffkine_Bio,(4,_6)_ >= 0
c596_1: -1.2959100000000002e7 W_Haffkine_Bio,(4,_6)_ - 1 Y_tilde_Haffkine_Bio,4_ + 1 N_Haffkine_Bio,(4,_6)_ >= -1.2959100000000002e7
c597_1: 0.13693750000000002 Q_OPV,Haffkine_Bio,(4,_7),1_ + 0.13419875 Q_OPV,Haffkine_Bio,(4,_7),2_ + 0.13009062500000002 Q_OPV,Haffkine_Bio,(4,_7),3_ - 1 N_Haffkine_Bio,(4,_7)_ >= 0
c598_1: -1.7278800000000004e7 W_Haffkine_Bio,(4,_7)_ - 1 Y_tilde_Haffkine_Bio,4_ + 1 N_Haffkine_Bio,(4,_7)_ >= -1.7278800000000004e7
c599_1: 0.13693750000000002 Q_OPV,Haffkine_Bio,(4,_8),1_ + 0.13419875 Q_OPV,Haffkine_Bio,(4,_8),2_ + 0.13009062500000002 Q_OPV,Haffkine_Bio,(4,_8),3_ - 1 N_Haffkine_Bio,(4,_8)_ >= 0
c600_1: -2.1598500000000004e7 W_Haffkine_Bio,(4,_8)_ - 1 Y_tilde_Haffkine_Bio,4_ + 1 N_Haffkine_Bio,(4,_8)_ >= -2.1598500000000004e7
c601: 0.13693750000000002 Q_OPV,Haffkine_Bio,(5,_5),1_ + 0.13419875 Q_OPV,Haffkine_Bio,(5,_5),2_ + 0.13009062500000002 Q_OPV,Haffkine_Bio,(5,_5),3_ - 1 N_Haffkine_Bio,(5,_5)_ >= 0
c602: -4.319700000000001e6 W_Haffkine_Bio,(5,_5)_ - 1 Y_tilde_Haffkine_Bio,5_ + 1 N_Haffkine_Bio,(5,_5)_ >= -4.319700000000001e6
c603: 0.13693750000000002 Q_OPV,Haffkine_Bio,(5,_6),1_ + 0.13419875 Q_OPV,Haffkine_Bio,(5,_6),2_ + 0.13009062500000002 Q_OPV,Haffkine_Bio,(5,_6),3_ - 1 N_Haffkine_Bio,(5,_6)_ >= 0
c604: -8.639400000000002e6 W_Haffkine_Bio,(5,_6)_ - 1 Y_tilde_Haffkine_Bio,5_ + 1 N_Haffkine_Bio,(5,_6)_ >= -8.639400000000002e6
c605: 0.13693750000000002 Q_OPV,Haffkine_Bio,(5,_7),1_ + 0.13419875 Q_OPV,Haffkine_Bio,(5,_7),2_ + 0.13009062500000002 Q_OPV,Haffkine_Bio,(5,_7),3_ - 1 N_Haffkine_Bio,(5,_7)_ >= 0
c606: -1.2959100000000002e7 W_Haffkine_Bio,(5,_7)_ - 1 Y_tilde_Haffkine_Bio,5_ + 1 N_Haffkine_Bio,(5,_7)_ >= -1.2959100000000002e7
c607: 0.13693750000000002 Q_OPV,Haffkine_Bio,(5,_8),1_ + 0.13419875 Q_OPV,Haffkine_Bio,(5,_8),2_ + 0.13009062500000002 Q_OPV,Haffkine_Bio,(5,_8),3_ - 1 N_Haffkine_Bio,(5,_8)_ >= 0
c608: -1.7278800000000004e7 W_Haffkine_Bio,(5,_8)_ - 1 Y_tilde_Haffkine_Bio,5_ + 1 N_Haffkine_Bio,(5,_8)_ >= -1.7278800000000004e7
c609: 0.13693750000000002 Q_OPV,Haffkine_Bio,(5,_9),1_ + 0.13419875 Q_OPV,Haffkine_Bio,(5,_9),2_ + 0.13009062500000002 Q_OPV,Haffkine_Bio,(5,_9),3_ - 1 N_Haffkine_Bio,(5,_9)_ >= 0
c610: -2.1598500000000004e7 W_Haffkine_Bio,(5,_9)_ - 1 Y_tilde_Haffkine_Bio,5_ + 1 N_Haffkine_Bio,(5,_9)_ >= -2.1598500000000004e7
c611: 0.13693750000000002 Q_OPV,Haffkine_Bio,(6,_6),1_ + 0.13419875 Q_OPV,Haffkine_Bio,(6,_6),2_ + 0.13009062500000002 Q_OPV,Haffkine_Bio,(6,_6),3_ - 1 N_Haffkine_Bio,(6,_6)_ >= 0
c612: -4.319700000000001e6 W_Haffkine_Bio,(6,_6)_ - 1 Y_tilde_Haffkine_Bio,6_ + 1 N_Haffkine_Bio,(6,_6)_ >= -4.319700000000001e6
c613: 0.13693750000000002 Q_OPV,Haffkine_Bio,(6,_7),1_ + 0.13419875 Q_OPV,Haffkine_Bio,(6,_7),2_ + 0.13009062500000002 Q_OPV,Haffkine_Bio,(6,_7),3_ - 1 N_Haffkine_Bio,(6,_7)_ >= 0
c614: -8.639400000000002e6 W_Haffkine_Bio,(6,_7)_ - 1 Y_tilde_Haffkine_Bio,6_ + 1 N_Haffkine_Bio,(6,_7)_ >= -8.639400000000002e6
c615: 0.13693750000000002 Q_OPV,Haffkine_Bio,(6,_8),1_ + 0.13419875 Q_OPV,Haffkine_Bio,(6,_8),2_ + 0.13009062500000002 Q_OPV,Haffkine_Bio,(6,_8),3_ - 1 N_Haffkine_Bio,(6,_8)_ >= 0
c616: -1.2959100000000002e7 W_Haffkine_Bio,(6,_8)_ - 1 Y_tilde_Haffkine_Bio,6_ + 1 N_Haffkine_Bio,(6,_8)_ >= -1.2959100000000002e7
c617: 0.13693750000000002 Q_OPV,Haffkine_Bio,(6,_9),1_ + 0.13419875 Q_OPV,Haffkine_Bio,(6,_9),2_ + 0.13009062500000002 Q_OPV,Haffkine_Bio,(6,_9),3_ - 1 N_Haffkine_Bio,(6,_9)_ >= 0
c618: -1.7278800000000004e7 W_Haffkine_Bio,(6,_9)_ - 1 Y_tilde_Haffkine_Bio,6_ + 1 N_Haffkine_Bio,(6,_9)_ >= -1.7278800000000004e7
c619: 0.13693750000000002 Q_OPV,Haffkine_Bio,(6,_10),1_ + 0.13419875 Q_OPV,Haffkine_Bio,(6,_10),2_ + 0.13009062500000002 Q_OPV,Haffkine_Bio,(6,_10),3_ - 1 N_Haffkine_Bio,(6,_10)_ >= 0
c620: -2.1598500000000004e7 W_Haffkine_Bio,(6,_10)_ - 1 Y_tilde_Haffkine_Bio,6_ + 1 N_Haffkine_Bio,(6,_10)_ >= -2.1598500000000004e7
c621: 0.13693750000000002 Q_OPV,Haffkine_Bio,(7,_7),1_ + 0.13419875 Q_OPV,Haffkine_Bio,(7,_7),2_ + 0.13009062500000002 Q_OPV,Haffkine_Bio,(7,_7),3_ - 1 N_Haffkine_Bio,(7,_7)_ >= 0
c622: -4.319700000000001e6 W_Haffkine_Bio,(7,_7)_ - 1 Y_tilde_Haffkine_Bio,7_ + 1 N_Haffkine_Bio,(7,_7)_ >= -4.319700000000001e6
c623: 0.13693750000000002 Q_OPV,Haffkine_Bio,(7,_8),1_ + 0.13419875 Q_OPV,Haffkine_Bio,(7,_8),2_ + 0.13009062500000002 Q_OPV,Haffkine_Bio,(7,_8),3_ - 1 N_Haffkine_Bio,(7,_8)_ >= 0
c624: -8.639400000000002e6 W_Haffkine_Bio,(7,_8)_ - 1 Y_tilde_Haffkine_Bio,7_ + 1 N_Haffkine_Bio,(7,_8)_ >= -8.639400000000002e6
c625: 0.13693750000000002 Q_OPV,Haffkine_Bio,(7,_9),1_ + 0.13419875 Q_OPV,Haffkine_Bio,(7,_9),2_ + 0.13009062500000002 Q_OPV,Haffkine_Bio,(7,_9),3_ - 1 N_Haffkine_Bio,(7,_9)_ >= 0
c626: -1.2959100000000002e7 W_Haffkine_Bio,(7,_9)_ - 1 Y_tilde_Haffkine_Bio,7_ + 1 N_Haffkine_Bio,(7,_9)_ >= -1.2959100000000002e7
c627: 0.13693750000000002 Q_OPV,Haffkine_Bio,(7,_10),1_ + 0.13419875 Q_OPV,Haffkine_Bio,(7,_10),2_ + 0.13009062500000002 Q_OPV,Haffkine_Bio,(7,_10),3_ - 1 N_Haffkine_Bio,(7,_10)_ >= 0
c628: -1.7278800000000004e7 W_Haffkine_Bio,(7,_10)_ - 1 Y_tilde_Haffkine_Bio,7_ + 1 N_Haffkine_Bio,(7,_10)_ >= -1.7278800000000004e7
c629: 0.13693750000000002 Q_OPV,Haffkine_Bio,(8,_8),1_ + 0.13419875 Q_OPV,Haffkine_Bio,(8,_8),2_ + 0.13009062500000002 Q_OPV,Haffkine_Bio,(8,_8),3_ - 1 N_Haffkine_Bio,(8,_8)_ >= 0
c630: -4.319700000000001e6 W_Haffkine_Bio,(8,_8)_ - 1 Y_tilde_Haffkine_Bio,8_ + 1 N_Haffkine_Bio,(8,_8)_ >= -4.319700000000001e6
c631: 0.13693750000000002 Q_OPV,Haffkine_Bio,(8,_9),1_ + 0.13419875 Q_OPV,Haffkine_Bio,(8,_9),2_ + 0.13009062500000002 Q_OPV,Haffkine_Bio,(8,_9),3_ - 1 N_Haffkine_Bio,(8,_9)_ >= 0
c632: -8.639400000000002e6 W_Haffkine_Bio,(8,_9)_ - 1 Y_tilde_Haffkine_Bio,8_ + 1 N_Haffkine_Bio,(8,_9)_ >= -8.639400000000002e6
c633: 0.13693750000000002 Q_OPV,Haffkine_Bio,(8,_10),1_ + 0.13419875 Q_OPV,Haffkine_Bio,(8,_10),2_ + 0.13009062500000002 Q_OPV,Haffkine_Bio,(8,_10),3_ - 1 N_Haffkine_Bio,(8,_10)_ >= 0
c634: -1.2959100000000002e7 W_Haffkine_Bio,(8,_10)_ - 1 Y_tilde_Haffkine_Bio,8_ + 1 N_Haffkine_Bio,(8,_10)_ >= -1.2959100000000002e7
c635: 0.13693750000000002 Q_OPV,Haffkine_Bio,(9,_9),1_ + 0.13419875 Q_OPV,Haffkine_Bio,(9,_9),2_ + 0.13009062500000002 Q_OPV,Haffkine_Bio,(9,_9),3_ - 1 N_Haffkine_Bio,(9,_9)_ >= 0
c636: -4.319700000000001e6 W_Haffkine_Bio,(9,_9)_ - 1 Y_tilde_Haffkine_Bio,9_ + 1 N_Haffkine_Bio,(9,_9)_ >= -4.319700000000001e6
c637: 0.13693750000000002 Q_OPV,Haffkine_Bio,(9,_10),1_ + 0.13419875 Q_OPV,Haffkine_Bio,(9,_10),2_ + 0.13009062500000002 Q_OPV,Haffkine_Bio,(9,_10),3_ - 1 N_Haffkine_Bio,(9,_10)_ >= 0
c638: -8.639400000000002e6 W_Haffkine_Bio,(9,_10)_ - 1 Y_tilde_Haffkine_Bio,9_ + 1 N_Haffkine_Bio,(9,_10)_ >= -8.639400000000002e6
c639: 0.13693750000000002 Q_OPV,Haffkine_Bio,(10,_10),1_ + 0.13419875 Q_OPV,Haffkine_Bio,(10,_10),2_ + 0.13009062500000002 Q_OPV,Haffkine_Bio,(10,_10),3_ - 1 N_Haffkine_Bio,(10,_10)_ >= 0
c640: -4.319700000000001e6 W_Haffkine_Bio,(10,_10)_ - 1 Y_tilde_Haffkine_Bio,10_ + 1 N_Haffkine_Bio,(10,_10)_ >= -4.319700000000001e6
c641: 0.42874999999999996 Q_HepB,LG_Chem,(1,_1),1_ + 0.42017499999999997 Q_HepB,LG_Chem,(1,_1),2_ + 0.40731249999999997 Q_HepB,LG_Chem,(1,_1),3_ + 2.262625 Q_IPV,LG_Chem,(1,_1),1_ + 2.2173724999999997 Q_IPV,LG_Chem,(1,_1),2_ + 2.14949375 Q_IPV,LG_Chem,(1,_1),3_ + 0.9686999999999999 Q_Penta,LG_Chem,(1,_1),1_ + 0.9493259999999999 Q_Penta,LG_Chem,(1,_1),2_ + 0.9202649999999999 Q_Penta,LG_Chem,(1,_1),3_ - 1 N_LG_Chem,(1,_1)_ >= 0
c642: -2.598352266927085e7 W_LG_Chem,(1,_1)_ - 1 Y_tilde_LG_Chem,1_ + 1 N_LG_Chem,(1,_1)_ >= -2.598352266927085e7
c643: 0.42874999999999996 Q_HepB,LG_Chem,(1,_2),1_ + 0.42017499999999997 Q_HepB,LG_Chem,(1,_2),2_ + 0.40731249999999997 Q_HepB,LG_Chem,(1,_2),3_ + 2.262625 Q_IPV,LG_Chem,(1,_2),1_ + 2.2173724999999997 Q_IPV,LG_Chem,(1,_2),2_ + 2.14949375 Q_IPV,LG_Chem,(1,_2),3_ + 0.9686999999999999 Q_Penta,LG_Chem,(1,_2),1_ + 0.9493259999999999 Q_Penta,LG_Chem,(1,_2),2_ + 0.9202649999999999 Q_Penta,LG_Chem,(1,_2),3_ - 1 N_LG_Chem,(1,_2)_ >= 0
c644: -5.19670453385417e7 W_LG_Chem,(1,_2)_ - 1 Y_tilde_LG_Chem,1_ + 1 N_LG_Chem,(1,_2)_ >= -5.19670453385417e7
c645: 0.42874999999999996 Q_HepB,LG_Chem,(1,_3),1_ + 0.42017499999999997 Q_HepB,LG_Chem,(1,_3),2_ + 0.40731249999999997 Q_HepB,LG_Chem,(1,_3),3_ + 2.262625 Q_IPV,LG_Chem,(1,_3),1_ + 2.2173724999999997 Q_IPV,LG_Chem,(1,_3),2_ + 2.14949375 Q_IPV,LG_Chem,(1,_3),3_ + 0.9686999999999999 Q_Penta,LG_Chem,(1,_3),1_ + 0.9493259999999999 Q_Penta,LG_Chem,(1,_3),2_ + 0.9202649999999999 Q_Penta,LG_Chem,(1,_3),3_ - 1 N_LG_Chem,(1,_3)_ >= 0
c646: -7.795056800781254e7 W_LG_Chem,(1,_3)_ - 1 Y_tilde_LG_Chem,1_ + 1 N_LG_Chem,(1,_3)_ >= -7.795056800781254e7
c647: 0.42874999999999996 Q_HepB,LG_Chem,(1,_4),1_ + 0.42017499999999997 Q_HepB,LG_Chem,(1,_4),2_ + 0.40731249999999997 Q_HepB,LG_Chem,(1,_4),3_ + 2.262625 Q_IPV,LG_Chem,(1,_4),1_ + 2.2173724999999997 Q_IPV,LG_Chem,(1,_4),2_ + 2.14949375 Q_IPV,LG_Chem,(1,_4),3_ + 0.9686999999999999 Q_Penta,LG_Chem,(1,_4),1_ + 0.9493259999999999 Q_Penta,LG_Chem,(1,_4),2_ + 0.9202649999999999 Q_Penta,LG_Chem,(1,_4),3_ - 1 N_LG_Chem,(1,_4)_ >= 0
c648: -1.0393409067708337e8 W_LG_Chem,(1,_4)_ - 1 Y_tilde_LG_Chem,1_ + 1 N_LG_Chem,(1,_4)_ >= -1.0393409067708337e8
c649: 0.42874999999999996 Q_HepB,LG_Chem,(1,_5),1_ + 0.42017499999999997 Q_HepB,LG_Chem,(1,_5),2_ + 0.40731249999999997 Q_HepB,LG_Chem,(1,_5),3_ + 2.262625 Q_IPV,LG_Chem,(1,_5),1_ + 2.2173724999999997 Q_IPV,LG_Chem,(1,_5),2_ + 2.14949375 Q_IPV,LG_Chem,(1,_5),3_ + 0.9686999999999999 Q_Penta,LG_Chem,(1,_5),1_ + 0.9493259999999999 Q_Penta,LG_Chem,(1,_5),2_ + 0.9202649999999999 Q_Penta,LG_Chem,(1,_5),3_ - 1 N_LG_Chem,(1,_5)_ >= 0
c650: -1.299176133463542e8 W_LG_Chem,(1,_5)_ - 1 Y_tilde_LG_Chem,1_ + 1 N_LG_Chem,(1,_5)_ >= -1.299176133463542e8
c651: 0.42874999999999996 Q_HepB,LG_Chem,(2,_2),1_ + 0.42017499999999997 Q_HepB,LG_Chem,(2,_2),2_ + 0.40731249999999997 Q_HepB,LG_Chem,(2,_2),3_ + 1.987625 Q_IPV,LG_Chem,(2,_2),1_ + 1.9478725 Q_IPV,LG_Chem,(2,_2),2_ + 1.88824375 Q_IPV,LG_Chem,(2,_2),3_ + 0.9686999999999999 Q_Penta,LG_Chem,(2,_2),1_ + 0.9493259999999999 Q_Penta,LG_Chem,(2,_2),2_ + 0.9202649999999999 Q_Penta,LG_Chem,(2,_2),3_ - 1 N_LG_Chem,(2,_2)_ >= 0
c652: -2.598352266927085e7 W_LG_Chem,(2,_2)_ - 1 Y_tilde_LG_Chem,2_ + 1 N_LG_Chem,(2,_2)_ >= -2.598352266927085e7
c653: 0.42874999999999996 Q_HepB,LG_Chem,(2,_3),1_ + 0.42017499999999997 Q_HepB,LG_Chem,(2,_3),2_ + 0.40731249999999997 Q_HepB,LG_Chem,(2,_3),3_ + 1.987625 Q_IPV,LG_Chem,(2,_3),1_ + 1.9478725 Q_IPV,LG_Chem,(2,_3),2_ + 1.88824375 Q_IPV,LG_Chem,(2,_3),3_ + 0.9686999999999999 Q_Penta,LG_Chem,(2,_3),1_ + 0.9493259999999999 Q_Penta,LG_Chem,(2,_3),2_ + 0.9202649999999999 Q_Penta,LG_Chem,(2,_3),3_ - 1 N_LG_Chem,(2,_3)_ >= 0
c654: -5.19670453385417e7 W_LG_Chem,(2,_3)_ - 1 Y_tilde_LG_Chem,2_ + 1 N_LG_Chem,(2,_3)_ >= -5.19670453385417e7
c655: 0.42874999999999996 Q_HepB,LG_Chem,(2,_4),1_ + 0.42017499999999997 Q_HepB,LG_Chem,(2,_4),2_ + 0.40731249999999997 Q_HepB,LG_Chem,(2,_4),3_ + 1.987625 Q_IPV,LG_Chem,(2,_4),1_ + 1.9478725 Q_IPV,LG_Chem,(2,_4),2_ + 1.88824375 Q_IPV,LG_Chem,(2,_4),3_ + 0.9686999999999999 Q_Penta,LG_Chem,(2,_4),1_ + 0.9493259999999999 Q_Penta,LG_Chem,(2,_4),2_ + 0.9202649999999999 Q_Penta,LG_Chem,(2,_4),3_ - 1 N_LG_Chem,(2,_4)_ >= 0
c656: -7.795056800781254e7 W_LG_Chem,(2,_4)_ - 1 Y_tilde_LG_Chem,2_ + 1 N_LG_Chem,(2,_4)_ >= -7.795056800781254e7
c657: 0.42874999999999996 Q_HepB,LG_Chem,(2,_5),1_ + 0.42017499999999997 Q_HepB,LG_Chem,(2,_5),2_ + 0.40731249999999997 Q_HepB,LG_Chem,(2,_5),3_ + 1.987625 Q_IPV,LG_Chem,(2,_5),1_ + 1.9478725 Q_IPV,LG_Chem,(2,_5),2_ + 1.88824375 Q_IPV,LG_Chem,(2,_5),3_ + 0.9686999999999999 Q_Penta,LG_Chem,(2,_5),1_ + 0.9493259999999999 Q_Penta,LG_Chem,(2,_5),2_ + 0.9202649999999999 Q_Penta,LG_Chem,(2,_5),3_ - 1 N_LG_Chem,(2,_5)_ >= 0
c658: -1.0393409067708337e8 W_LG_Chem,(2,_5)_ - 1 Y_tilde_LG_Chem,2_ + 1 N_LG_Chem,(2,_5)_ >= -1.0393409067708337e8
c659: 0.42874999999999996 Q_HepB,LG_Chem,(2,_6),1_ + 0.42017499999999997 Q_HepB,LG_Chem,(2,_6),2_ + 0.40731249999999997 Q_HepB,LG_Chem,(2,_6),3_ + 1.987625 Q_IPV,LG_Chem,(2,_6),1_ + 1.9478725 Q_IPV,LG_Chem,(2,_6),2_ + 1.88824375 Q_IPV,LG_Chem,(2,_6),3_ + 0.9686999999999999 Q_Penta,LG_Chem,(2,_6),1_ + 0.9493259999999999 Q_Penta,LG_Chem,(2,_6),2_ + 0.9202649999999999 Q_Penta,LG_Chem,(2,_6),3_ - 1 N_LG_Chem,(2,_6)_ >= 0
c660: -1.299176133463542e8 W_LG_Chem,(2,_6)_ - 1 Y_tilde_LG_Chem,2_ + 1 N_LG_Chem,(2,_6)_ >= -1.299176133463542e8
c661: 0.42874999999999996 Q_HepB,LG_Chem,(3,_3),1_ + 0.42017499999999997 Q_HepB,LG_Chem,(3,_3),2_ + 0.40731249999999997 Q_HepB,LG_Chem,(3,_3),3_ + 1.812625 Q_IPV,LG_Chem,(3,_3),1_ + 1.7763725 Q_IPV,LG_Chem,(3,_3),2_ + 1.7219937499999998 Q_IPV,LG_Chem,(3,_3),3_ + 0.9880000000000001 Q_Penta,LG_Chem,(3,_3),1_ + 0.9682400000000001 Q_Penta,LG_Chem,(3,_3),2_ + 0.9386000000000001 Q_Penta,LG_Chem,(3,_3),3_ - 1 N_LG_Chem,(3,_3)_ >= 0
c662: -2.598352266927085e7 W_LG_Chem,(3,_3)_ - 1 Y_tilde_LG_Chem,3_ + 1 N_LG_Chem,(3,_3)_ >= -2.598352266927085e7
c663: 0.42874999999999996 Q_HepB,LG_Chem,(3,_4),1_ + 0.42017499999999997 Q_HepB,LG_Chem,(3,_4),2_ + 0.40731249999999997 Q_HepB,LG_Chem,(3,_4),3_ + 1.812625 Q_IPV,LG_Chem,(3,_4),1_ + 1.7763725 Q_IPV,LG_Chem,(3,_4),2_ + 1.7219937499999998 Q_IPV,LG_Chem,(3,_4),3_ + 0.9880000000000001 Q_Penta,LG_Chem,(3,_4),1_ + 0.9682400000000001 Q_Penta,LG_Chem,(3,_4),2_ + 0.9386000000000001 Q_Penta,LG_Chem,(3,_4),3_ - 1 N_LG_Chem,(3,_4)_ >= 0
c664: -5.19670453385417e7 W_LG_Chem,(3,_4)_ - 1 Y_tilde_LG_Chem,3_ + 1 N_LG_Chem,(3,_4)_ >= -5.19670453385417e7
c665: 0.42874999999999996 Q_HepB,LG_Chem,(3,_5),1_ + 0.42017499999999997 Q_HepB,LG_Chem,(3,_5),2_ + 0.40731249999999997 Q_HepB,LG_Chem,(3,_5),3_ + 1.812625 Q_IPV,LG_Chem,(3,_5),1_ + 1.7763725 Q_IPV,LG_Chem,(3,_5),2_ + 1.7219937499999998 Q_IPV,LG_Chem,(3,_5),3_ + 0.9880000000000001 Q_Penta,LG_Chem,(3,_5),1_ + 0.9682400000000001 Q_Penta,LG_Chem,(3,_5),2_ + 0.9386000000000001 Q_Penta,LG_Chem,(3,_5),3_ - 1 N_LG_Chem,(3,_5)_ >= 0
c666: -7.795056800781254e7 W_LG_Chem,(3,_5)_ - 1 Y_tilde_LG_Chem,3_ + 1 N_LG_Chem,(3,_5)_ >= -7.795056800781254e7
c667: 0.42874999999999996 Q_HepB,LG_Chem,(3,_6),1_ + 0.42017499999999997 Q_HepB,LG_Chem,(3,_6),2_ + 0.40731249999999997 Q_HepB,LG_Chem,(3,_6),3_ + 1.812625 Q_IPV,LG_Chem,(3,_6),1_ + 1.7763725 Q_IPV,LG_Chem,(3,_6),2_ + 1.7219937499999998 Q_IPV,LG_Chem,(3,_6),3_ + 0.9880000000000001 Q_Penta,LG_Chem,(3,_6),1_ + 0.9682400000000001 Q_Penta,LG_Chem,(3,_6),2_ + 0.9386000000000001 Q_Penta,LG_Chem,(3,_6),3_ - 1 N_LG_Chem,(3,_6)_ >= 0
c668: -1.0393409067708337e8 W_LG_Chem,(3,_6)_ - 1 Y_tilde_LG_Chem,3_ + 1 N_LG_Chem,(3,_6)_ >= -1.0393409067708337e8
c669: 0.42874999999999996 Q_HepB,LG_Chem,(3,_7),1_ + 0.42017499999999997 Q_HepB,LG_Chem,(3,_7),2_ + 0.40731249999999997 Q_HepB,LG_Chem,(3,_7),3_ + 1.812625 Q_IPV,LG_Chem,(3,_7),1_ + 1.7763725 Q_IPV,LG_Chem,(3,_7),2_ + 1.7219937499999998 Q_IPV,LG_Chem,(3,_7),3_ + 0.9880000000000001 Q_Penta,LG_Chem,(3,_7),1_ + 0.9682400000000001 Q_Penta,LG_Chem,(3,_7),2_ + 0.9386000000000001 Q_Penta,LG_Chem,(3,_7),3_ - 1 N_LG_Chem,(3,_7)_ >= 0
c670: -1.299176133463542e8 W_LG_Chem,(3,_7)_ - 1 Y_tilde_LG_Chem,3_ + 1 N_LG_Chem,(3,_7)_ >= -1.299176133463542e8
c671: 0.42874999999999996 Q_HepB,LG_Chem,(4,_4),1_ + 0.42017499999999997 Q_HepB,LG_Chem,(4,_4),2_ + 0.40731249999999997 Q_HepB,LG_Chem,(4,_4),3_ + 1.9208333333333334 Q_IPV,LG_Chem,(4,_4),1_ + 1.8824166666666666 Q_IPV,LG_Chem,(4,_4),2_ + 1.8247916666666666 Q_IPV,LG_Chem,(4,_4),3_ + 0.9880000000000001 Q_Penta,LG_Chem,(4,_4),1_ + 0.9682400000000001 Q_Penta,LG_Chem,(4,_4),2_ + 0.9386000000000001 Q_Penta,LG_Chem,(4,_4),3_ - 1 N_LG_Chem,(4,_4)_ >= 0
c672: -2.598352266927085e7 W_LG_Chem,(4,_4)_ - 1 Y_tilde_LG_Chem,4_ + 1 N_LG_Chem,(4,_4)_ >= -2.598352266927085e7
c673: 0.42874999999999996 Q_HepB,LG_Chem,(4,_5),1_ + 0.42017499999999997 Q_HepB,LG_Chem,(4,_5),2_ + 0.40731249999999997 Q_HepB,LG_Chem,(4,_5),3_ + 1.9208333333333334 Q_IPV,LG_Chem,(4,_5),1_ + 1.8824166666666666 Q_IPV,LG_Chem,(4,_5),2_ + 1.8247916666666666 Q_IPV,LG_Chem,(4,_5),3_ + 0.9880000000000001 Q_Penta,LG_Chem,(4,_5),1_ + 0.9682400000000001 Q_Penta,LG_Chem,(4,_5),2_ + 0.9386000000000001 Q_Penta,LG_Chem,(4,_5),3_ - 1 N_LG_Chem,(4,_5)_ >= 0
c674: -5.19670453385417e7 W_LG_Chem,(4,_5)_ - 1 Y_tilde_LG_Chem,4_ + 1 N_LG_Chem,(4,_5)_ >= -5.19670453385417e7
c675: 0.42874999999999996 Q_HepB,LG_Chem,(4,_6),1_ + 0.42017499999999997 Q_HepB,LG_Chem,(4,_6),2_ + 0.40731249999999997 Q_HepB,LG_Chem,(4,_6),3_ + 1.9208333333333334 Q_IPV,LG_Chem,(4,_6),1_ + 1.8824166666666666 Q_IPV,LG_Chem,(4,_6),2_ + 1.8247916666666666 Q_IPV,LG_Chem,(4,_6),3_ + 0.9880000000000001 Q_Penta,LG_Chem,(4,_6),1_ + 0.9682400000000001 Q_Penta,LG_Chem,(4,_6),2_ + 0.9386000000000001 Q_Penta,LG_Chem,(4,_6),3_ - 1 N_LG_Chem,(4,_6)_ >= 0
c676: -7.795056800781254e7 W_LG_Chem,(4,_6)_ - 1 Y_tilde_LG_Chem,4_ + 1 N_LG_Chem,(4,_6)_ >= -7.795056800781254e7
c677: 0.42874999999999996 Q_HepB,LG_Chem,(4,_7),1_ + 0.42017499999999997 Q_HepB,LG_Chem,(4,_7),2_ + 0.40731249999999997 Q_HepB,LG_Chem,(4,_7),3_ + 1.9208333333333334 Q_IPV,LG_Chem,(4,_7),1_ + 1.8824166666666666 Q_IPV,LG_Chem,(4,_7),2_ + 1.8247916666666666 Q_IPV,LG_Chem,(4,_7),3_ + 0.9880000000000001 Q_Penta,LG_Chem,(4,_7),1_ + 0.9682400000000001 Q_Penta,LG_Chem,(4,_7),2_ + 0.9386000000000001 Q_Penta,LG_Chem,(4,_7),3_ - 1 N_LG_Chem,(4,_7)_ >= 0
c678: -1.0393409067708337e8 W_LG_Chem,(4,_7)_ - 1 Y_tilde_LG_Chem,4_ + 1 N_LG_Chem,(4,_7)_ >= -1.0393409067708337e8
c679: 0.42874999999999996 Q_HepB,LG_Chem,(4,_8),1_ + 0.42017499999999997 Q_HepB,LG_Chem,(4,_8),2_ + 0.40731249999999997 Q_HepB,LG_Chem,(4,_8),3_ + 1.9208333333333334 Q_IPV,LG_Chem,(4,_8),1_ + 1.8824166666666666 Q_IPV,LG_Chem,(4,_8),2_ + 1.8247916666666666 Q_IPV,LG_Chem,(4,_8),3_ + 0.9880000000000001 Q_Penta,LG_Chem,(4,_8),1_ + 0.9682400000000001 Q_Penta,LG_Chem,(4,_8),2_ + 0.9386000000000001 Q_Penta,LG_Chem,(4,_8),3_ - 1 N_LG_Chem,(4,_8)_ >= 0
c680: -1.299176133463542e8 W_LG_Chem,(4,_8)_ - 1 Y_tilde_LG_Chem,4_ + 1 N_LG_Chem,(4,_8)_ >= -1.299176133463542e8
c681: 0.42874999999999996 Q_HepB,LG_Chem,(5,_5),1_ + 0.42017499999999997 Q_HepB,LG_Chem,(5,_5),2_ + 0.40731249999999997 Q_HepB,LG_Chem,(5,_5),3_ + 1.9208333333333334 Q_IPV,LG_Chem,(5,_5),1_ + 1.8824166666666666 Q_IPV,LG_Chem,(5,_5),2_ + 1.8247916666666666 Q_IPV,LG_Chem,(5,_5),3_ + 1.001 Q_Penta,LG_Chem,(5,_5),1_ + 0.9809799999999999 Q_Penta,LG_Chem,(5,_5),2_ + 0.9509499999999999 Q_Penta,LG_Chem,(5,_5),3_ - 1 N_LG_Chem,(5,_5)_ >= 0
c682: -2.598352266927085e7 W_LG_Chem,(5,_5)_ - 1 Y_tilde_LG_Chem,5_ + 1 N_LG_Chem,(5,_5)_ >= -2.598352266927085e7
c683: 0.42874999999999996 Q_HepB,LG_Chem,(5,_6),1_ + 0.42017499999999997 Q_HepB,LG_Chem,(5,_6),2_ + 0.40731249999999997 Q_HepB,LG_Chem,(5,_6),3_ + 1.9208333333333334 Q_IPV,LG_Chem,(5,_6),1_ + 1.8824166666666666 Q_IPV,LG_Chem,(5,_6),2_ + 1.8247916666666666 Q_IPV,LG_Chem,(5,_6),3_ + 1.001 Q_Penta,LG_Chem,(5,_6),1_ + 0.9809799999999999 Q_Penta,LG_Chem,(5,_6),2_ + 0.9509499999999999 Q_Penta,LG_Chem,(5,_6),3_ - 1 N_LG_Chem,(5,_6)_ >= 0
c684: -5.19670453385417e7 W_LG_Chem,(5,_6)_ - 1 Y_tilde_LG_Chem,5_ + 1 N_LG_Chem,(5,_6)_ >= -5.19670453385417e7
c685: 0.42874999999999996 Q_HepB,LG_Chem,(5,_7),1_ + 0.42017499999999997 Q_HepB,LG_Chem,(5,_7),2_ + 0.40731249999999997 Q_HepB,LG_Chem,(5,_7),3_ + 1.9208333333333334 Q_IPV,LG_Chem,(5,_7),1_ + 1.8824166666666666 Q_IPV,LG_Chem,(5,_7),2_ + 1.8247916666666666 Q_IPV,LG_Chem,(5,_7),3_ + 1.001 Q_Penta,LG_Chem,(5,_7),1_ + 0.9809799999999999 Q_Penta,LG_Chem,(5,_7),2_ + 0.9509499999999999 Q_Penta,LG_Chem,(5,_7),3_ - 1 N_LG_Chem,(5,_7)_ >= 0
c686: -7.795056800781254e7 W_LG_Chem,(5,_7)_ - 1 Y_tilde_LG_Chem,5_ + 1 N_LG_Chem,(5,_7)_ >= -7.795056800781254e7
c687: 0.42874999999999996 Q_HepB,LG_Chem,(5,_8),1_ + 0.42017499999999997 Q_HepB,LG_Chem,(5,_8),2_ + 0.40731249999999997 Q_HepB,LG_Chem,(5,_8),3_ + 1.9208333333333334 Q_IPV,LG_Chem,(5,_8),1_ + 1.8824166666666666 Q_IPV,LG_Chem,(5,_8),2_ + 1.8247916666666666 Q_IPV,LG_Chem,(5,_8),3_ + 1.001 Q_Penta,LG_Chem,(5,_8),1_ + 0.9809799999999999 Q_Penta,LG_Chem,(5,_8),2_ + 0.9509499999999999 Q_Penta,LG_Chem,(5,_8),3_ - 1 N_LG_Chem,(5,_8)_ >= 0
c688: -1.0393409067708337e8 W_LG_Chem,(5,_8)_ - 1 Y_tilde_LG_Chem,5_ + 1 N_LG_Chem,(5,_8)_ >= -1.0393409067708337e8
c689: 0.42874999999999996 Q_HepB,LG_Chem,(5,_9),1_ + 0.42017499999999997 Q_HepB,LG_Chem,(5,_9),2_ + 0.40731249999999997 Q_HepB,LG_Chem,(5,_9),3_ + 1.9208333333333334 Q_IPV,LG_Chem,(5,_9),1_ + 1.8824166666666666 Q_IPV,LG_Chem,(5,_9),2_ + 1.8247916666666666 Q_IPV,LG_Chem,(5,_9),3_ + 1.001 Q_Penta,LG_Chem,(5,_9),1_ + 0.9809799999999999 Q_Penta,LG_Chem,(5,_9),2_ + 0.9509499999999999 Q_Penta,LG_Chem,(5,_9),3_ - 1 N_LG_Chem,(5,_9)_ >= 0
c690: -1.299176133463542e8 W_LG_Chem,(5,_9)_ - 1 Y_tilde_LG_Chem,5_ + 1 N_LG_Chem,(5,_9)_ >= -1.299176133463542e8
c691: 0.42874999999999996 Q_HepB,LG_Chem,(6,_6),1_ + 0.42017499999999997 Q_HepB,LG_Chem,(6,_6),2_ + 0.40731249999999997 Q_HepB,LG_Chem,(6,_6),3_ + 1.9208333333333334 Q_IPV,LG_Chem,(6,_6),1_ + 1.8824166666666666 Q_IPV,LG_Chem,(6,_6),2_ + 1.8247916666666666 Q_IPV,LG_Chem,(6,_6),3_ + 0.9935 Q_Penta,LG_Chem,(6,_6),1_ + 0.97363 Q_Penta,LG_Chem,(6,_6),2_ + 0.943825 Q_Penta,LG_Chem,(6,_6),3_ - 1 N_LG_Chem,(6,_6)_ >= 0
c692: -2.598352266927085e7 W_LG_Chem,(6,_6)_ - 1 Y_tilde_LG_Chem,6_ + 1 N_LG_Chem,(6,_6)_ >= -2.598352266927085e7
c693: 0.42874999999999996 Q_HepB,LG_Chem,(6,_7),1_ + 0.42017499999999997 Q_HepB,LG_Chem,(6,_7),2_ + 0.40731249999999997 Q_HepB,LG_Chem,(6,_7),3_ + 1.9208333333333334 Q_IPV,LG_Chem,(6,_7),1_ + 1.8824166666666666 Q_IPV,LG_Chem,(6,_7),2_ + 1.8247916666666666 Q_IPV,LG_Chem,(6,_7),3_ + 0.9935 Q_Penta,LG_Chem,(6,_7),1_ + 0.97363 Q_Penta,LG_Chem,(6,_7),2_ + 0.943825 Q_Penta,LG_Chem,(6,_7),3_ - 1 N_LG_Chem,(6,_7)_ >= 0
c694: -5.19670453385417e7 W_LG_Chem,(6,_7)_ - 1 Y_tilde_LG_Chem,6_ + 1 N_LG_Chem,(6,_7)_ >= -5.19670453385417e7
c695: 0.42874999999999996 Q_HepB,LG_Chem,(6,_8),1_ + 0.42017499999999997 Q_HepB,LG_Chem,(6,_8),2_ + 0.40731249999999997 Q_HepB,LG_Chem,(6,_8),3_ + 1.9208333333333334 Q_IPV,LG_Chem,(6,_8),1_ + 1.8824166666666666 Q_IPV,LG_Chem,(6,_8),2_ + 1.8247916666666666 Q_IPV,LG_Chem,(6,_8),3_ + 0.9935 Q_Penta,LG_Chem,(6,_8),1_ + 0.97363 Q_Penta,LG_Chem,(6,_8),2_ + 0.943825 Q_Penta,LG_Chem,(6,_8),3_ - 1 N_LG_Chem,(6,_8)_ >= 0
c696: -7.795056800781254e7 W_LG_Chem,(6,_8)_ - 1 Y_tilde_LG_Chem,6_ + 1 N_LG_Chem,(6,_8)_ >= -7.795056800781254e7
c697: 0.42874999999999996 Q_HepB,LG_Chem,(6,_9),1_ + 0.42017499999999997 Q_HepB,LG_Chem,(6,_9),2_ + 0.40731249999999997 Q_HepB,LG_Chem,(6,_9),3_ + 1.9208333333333334 Q_IPV,LG_Chem,(6,_9),1_ + 1.8824166666666666 Q_IPV,LG_Chem,(6,_9),2_ + 1.8247916666666666 Q_IPV,LG_Chem,(6,_9),3_ + 0.9935 Q_Penta,LG_Chem,(6,_9),1_ + 0.97363 Q_Penta,LG_Chem,(6,_9),2_ + 0.943825 Q_Penta,LG_Chem,(6,_9),3_ - 1 N_LG_Chem,(6,_9)_ >= 0
c698: -1.0393409067708337e8 W_LG_Chem,(6,_9)_ - 1 Y_tilde_LG_Chem,6_ + 1 N_LG_Chem,(6,_9)_ >= -1.0393409067708337e8
c699: 0.42874999999999996 Q_HepB,LG_Chem,(6,_10),1_ + 0.42017499999999997 Q_HepB,LG_Chem,(6,_10),2_ + 0.40731249999999997 Q_HepB,LG_Chem,(6,_10),3_ + 1.9208333333333334 Q_IPV,LG_Chem,(6,_10),1_ + 1.8824166666666666 Q_IPV,LG_Chem,(6,_10),2_ + 1.8247916666666666 Q_IPV,LG_Chem,(6,_10),3_ + 0.9935 Q_Penta,LG_Chem,(6,_10),1_ + 0.97363 Q_Penta,LG_Chem,(6,_10),2_ + 0.943825 Q_Penta,LG_Chem,(6,_10),3_ - 1 N_LG_Chem,(6,_10)_ >= 0
c700: -1.299176133463542e8 W_LG_Chem,(6,_10)_ - 1 Y_tilde_LG_Chem,6_ + 1 N_LG_Chem,(6,_10)_ >= -1.299176133463542e8
c701: 0.42874999999999996 Q_HepB,LG_Chem,(7,_7),1_ + 0.42017499999999997 Q_HepB,LG_Chem,(7,_7),2_ + 0.40731249999999997 Q_HepB,LG_Chem,(7,_7),3_ + 1.9208333333333334 Q_IPV,LG_Chem,(7,_7),1_ + 1.8824166666666666 Q_IPV,LG_Chem,(7,_7),2_ + 1.8247916666666666 Q_IPV,LG_Chem,(7,_7),3_ + 0.99825 Q_Penta,LG_Chem,(7,_7),1_ + 0.978285 Q_Penta,LG_Chem,(7,_7),2_ + 0.9483374999999999 Q_Penta,LG_Chem,(7,_7),3_ - 1 N_LG_Chem,(7,_7)_ >= 0
c702: -2.598352266927085e7 W_LG_Chem,(7,_7)_ - 1 Y_tilde_LG_Chem,7_ + 1 N_LG_Chem,(7,_7)_ >= -2.598352266927085e7
c703: 0.42874999999999996 Q_HepB,LG_Chem,(7,_8),1_ + 0.42017499999999997 Q_HepB,LG_Chem,(7,_8),2_ + 0.40731249999999997 Q_HepB,LG_Chem,(7,_8),3_ + 1.9208333333333334 Q_IPV,LG_Chem,(7,_8),1_ + 1.8824166666666666 Q_IPV,LG_Chem,(7,_8),2_ + 1.8247916666666666 Q_IPV,LG_Chem,(7,_8),3_ + 0.99825 Q_Penta,LG_Chem,(7,_8),1_ + 0.978285 Q_Penta,LG_Chem,(7,_8),2_ + 0.9483374999999999 Q_Penta,LG_Chem,(7,_8),3_ - 1 N_LG_Chem,(7,_8)_ >= 0
c704: -5.19670453385417e7 W_LG_Chem,(7,_8)_ - 1 Y_tilde_LG_Chem,7_ + 1 N_LG_Chem,(7,_8)_ >= -5.19670453385417e7
c705: 0.42874999999999996 Q_HepB,LG_Chem,(7,_9),1_ + 0.42017499999999997 Q_HepB,LG_Chem,(7,_9),2_ + 0.40731249999999997 Q_HepB,LG_Chem,(7,_9),3_ + 1.9208333333333334 Q_IPV,LG_Chem,(7,_9),1_ + 1.8824166666666666 Q_IPV,LG_Chem,(7,_9),2_ + 1.8247916666666666 Q_IPV,LG_Chem,(7,_9),3_ + 0.99825 Q_Penta,LG_Chem,(7,_9),1_ + 0.978285 Q_Penta,LG_Chem,(7,_9),2_ + 0.9483374999999999 Q_Penta,LG_Chem,(7,_9),3_ - 1 N_LG_Chem,(7,_9)_ >= 0
c706: -7.795056800781254e7 W_LG_Chem,(7,_9)_ - 1 Y_tilde_LG_Chem,7_ + 1 N_LG_Chem,(7,_9)_ >= -7.795056800781254e7
c707: 0.42874999999999996 Q_HepB,LG_Chem,(7,_10),1_ + 0.42017499999999997 Q_HepB,LG_Chem,(7,_10),2_ + 0.40731249999999997 Q_HepB,LG_Chem,(7,_10),3_ + 1.9208333333333334 Q_IPV,LG_Chem,(7,_10),1_ + 1.8824166666666666 Q_IPV,LG_Chem,(7,_10),2_ + 1.8247916666666666 Q_IPV,LG_Chem,(7,_10),3_ + 0.99825 Q_Penta,LG_Chem,(7,_10),1_ + 0.978285 Q_Penta,LG_Chem,(7,_10),2_ + 0.9483374999999999 Q_Penta,LG_Chem,(7,_10),3_ - 1 N_LG_Chem,(7,_10)_ >= 0
c708: -1.0393409067708337e8 W_LG_Chem,(7,_10)_ - 1 Y_tilde_LG_Chem,7_ + 1 N_LG_Chem,(7,_10)_ >= -1.0393409067708337e8
c709: 0.42874999999999996 Q_HepB,LG_Chem,(8,_8),1_ + 0.42017499999999997 Q_HepB,LG_Chem,(8,_8),2_ + 0.40731249999999997 Q_HepB,LG_Chem,(8,_8),3_ + 1.9208333333333334 Q_IPV,LG_Chem,(8,_8),1_ + 1.8824166666666666 Q_IPV,LG_Chem,(8,_8),2_ + 1.8247916666666666 Q_IPV,LG_Chem,(8,_8),3_ + 0.996875 Q_Penta,LG_Chem,(8,_8),1_ + 0.9769374999999999 Q_Penta,LG_Chem,(8,_8),2_ + 0.9470312499999999 Q_Penta,LG_Chem,(8,_8),3_ - 1 N_LG_Chem,(8,_8)_ >= 0
c710: -2.598352266927085e7 W_LG_Chem,(8,_8)_ - 1 Y_tilde_LG_Chem,8_ + 1 N_LG_Chem,(8,_8)_ >= -2.598352266927085e7
c711: 0.42874999999999996 Q_HepB,LG_Chem,(8,_9),1_ + 0.42017499999999997 Q_HepB,LG_Chem,(8,_9),2_ + 0.40731249999999997 Q_HepB,LG_Chem,(8,_9),3_ + 1.9208333333333334 Q_IPV,LG_Chem,(8,_9),1_ + 1.8824166666666666 Q_IPV,LG_Chem,(8,_9),2_ + 1.8247916666666666 Q_IPV,LG_Chem,(8,_9),3_ + 0.996875 Q_Penta,LG_Chem,(8,_9),1_ + 0.9769374999999999 Q_Penta,LG_Chem,(8,_9),2_ + 0.9470312499999999 Q_Penta,LG_Chem,(8,_9),3_ - 1 N_LG_Chem,(8,_9)_ >= 0
c712: -5.19670453385417e7 W_LG_Chem,(8,_9)_ - 1 Y_tilde_LG_Chem,8_ + 1 N_LG_Chem,(8,_9)_ >= -5.19670453385417e7
c713: 0.42874999999999996 Q_HepB,LG_Chem,(8,_10),1_ + 0.42017499999999997 Q_HepB,LG_Chem,(8,_10),2_ + 0.40731249999999997 Q_HepB,LG_Chem,(8,_10),3_ + 1.9208333333333334 Q_IPV,LG_Chem,(8,_10),1_ + 1.8824166666666666 Q_IPV,LG_Chem,(8,_10),2_ + 1.8247916666666666 Q_IPV,LG_Chem,(8,_10),3_ + 0.996875 Q_Penta,LG_Chem,(8,_10),1_ + 0.9769374999999999 Q_Penta,LG_Chem,(8,_10),2_ + 0.9470312499999999 Q_Penta,LG_Chem,(8,_10),3_ - 1 N_LG_Chem,(8,_10)_ >= 0
c714: -7.795056800781254e7 W_LG_Chem,(8,_10)_ - 1 Y_tilde_LG_Chem,8_ + 1 N_LG_Chem,(8,_10)_ >= -7.795056800781254e7
c715: 0.42874999999999996 Q_HepB,LG_Chem,(9,_9),1_ + 0.42017499999999997 Q_HepB,LG_Chem,(9,_9),2_ + 0.40731249999999997 Q_HepB,LG_Chem,(9,_9),3_ + 1.9208333333333334 Q_IPV,LG_Chem,(9,_9),1_ + 1.8824166666666666 Q_IPV,LG_Chem,(9,_9),2_ + 1.8247916666666666 Q_IPV,LG_Chem,(9,_9),3_ + 0.9975625000000001 Q_Penta,LG_Chem,(9,_9),1_ + 0.9776112500000002 Q_Penta,LG_Chem,(9,_9),2_ + 0.9476843750000001 Q_Penta,LG_Chem,(9,_9),3_ - 1 N_LG_Chem,(9,_9)_ >= 0
c716: -2.598352266927085e7 W_LG_Chem,(9,_9)_ - 1 Y_tilde_LG_Chem,9_ + 1 N_LG_Chem,(9,_9)_ >= -2.598352266927085e7
c717: 0.42874999999999996 Q_HepB,LG_Chem,(9,_10),1_ + 0.42017499999999997 Q_HepB,LG_Chem,(9,_10),2_ + 0.40731249999999997 Q_HepB,LG_Chem,(9,_10),3_ + 1.9208333333333334 Q_IPV,LG_Chem,(9,_10),1_ + 1.8824166666666666 Q_IPV,LG_Chem,(9,_10),2_ + 1.8247916666666666 Q_IPV,LG_Chem,(9,_10),3_ + 0.9975625000000001 Q_Penta,LG_Chem,(9,_10),1_ + 0.9776112500000002 Q_Penta,LG_Chem,(9,_10),2_ + 0.9476843750000001 Q_Penta,LG_Chem,(9,_10),3_ - 1 N_LG_Chem,(9,_10)_ >= 0
c718: -5.19670453385417e7 W_LG_Chem,(9,_10)_ - 1 Y_tilde_LG_Chem,9_ + 1 N_LG_Chem,(9,_10)_ >= -5.19670453385417e7
c719: 0.42874999999999996 Q_HepB,LG_Chem,(10,_10),1_ + 0.42017499999999997 Q_HepB,LG_Chem,(10,_10),2_ + 0.40731249999999997 Q_HepB,LG_Chem,(10,_10),3_ + 1.9208333333333334 Q_IPV,LG_Chem,(10,_10),1_ + 1.8824166666666666 Q_IPV,LG_Chem,(10,_10),2_ + 1.8247916666666666 Q_IPV,LG_Chem,(10,_10),3_ + 0.99721875 Q_Penta,LG_Chem,(10,_10),1_ + 0.977274375 Q_Penta,LG_Chem,(10,_10),2_ + 0.9473578125 Q_Penta,LG_Chem,(10,_10),3_ - 1 N_LG_Chem,(10,_10)_ >= 0
c720: -2.598352266927085e7 W_LG_Chem,(10,_10)_ - 1 Y_tilde_LG_Chem,10_ + 1 N_LG_Chem,(10,_10)_ >= -2.598352266927085e7
c721: 4 Q_HPV,Merck_Sharp,(1,_1),1_ + 3.92 Q_HPV,Merck_Sharp,(1,_1),2_ + 3.8 Q_HPV,Merck_Sharp,(1,_1),3_ - 1 N_Merck_Sharp,(1,_1)_ >= 0
c722: -2.9279250000000004e7 W_Merck_Sharp,(1,_1)_ - 1 Y_tilde_Merck_Sharp,1_ + 1 N_Merck_Sharp,(1,_1)_ >= -2.9279250000000004e7
c723: 4 Q_HPV,Merck_Sharp,(1,_2),1_ + 3.92 Q_HPV,Merck_Sharp,(1,_2),2_ + 3.8 Q_HPV,Merck_Sharp,(1,_2),3_ - 1 N_Merck_Sharp,(1,_2)_ >= 0
c724: -5.855850000000001e7 W_Merck_Sharp,(1,_2)_ - 1 Y_tilde_Merck_Sharp,1_ + 1 N_Merck_Sharp,(1,_2)_ >= -5.855850000000001e7
c725: 4 Q_HPV,Merck_Sharp,(1,_3),1_ + 3.92 Q_HPV,Merck_Sharp,(1,_3),2_ + 3.8 Q_HPV,Merck_Sharp,(1,_3),3_ - 1 N_Merck_Sharp,(1,_3)_ >= 0
c726: -8.783775000000001e7 W_Merck_Sharp,(1,_3)_ - 1 Y_tilde_Merck_Sharp,1_ + 1 N_Merck_Sharp,(1,_3)_ >= -8.783775000000001e7
c727: 4 Q_HPV,Merck_Sharp,(1,_4),1_ + 3.92 Q_HPV,Merck_Sharp,(1,_4),2_ + 3.8 Q_HPV,Merck_Sharp,(1,_4),3_ - 1 N_Merck_Sharp,(1,_4)_ >= 0
c728: -1.1711700000000001e8 W_Merck_Sharp,(1,_4)_ - 1 Y_tilde_Merck_Sharp,1_ + 1 N_Merck_Sharp,(1,_4)_ >= -1.1711700000000001e8
c729: 4 Q_HPV,Merck_Sharp,(1,_5),1_ + 3.92 Q_HPV,Merck_Sharp,(1,_5),2_ + 3.8 Q_HPV,Merck_Sharp,(1,_5),3_ - 1 N_Merck_Sharp,(1,_5)_ >= 0
c730: -1.4639625000000003e8 W_Merck_Sharp,(1,_5)_ - 1 Y_tilde_Merck_Sharp,1_ + 1 N_Merck_Sharp,(1,_5)_ >= -1.4639625000000003e8
c731: 4.193333333333333 Q_HPV,Merck_Sharp,(2,_2),1_ + 4.109466666666667 Q_HPV,Merck_Sharp,(2,_2),2_ + 3.9836666666666667 Q_HPV,Merck_Sharp,(2,_2),3_ - 1 N_Merck_Sharp,(2,_2)_ >= 0
c732: -2.9279250000000004e7 W_Merck_Sharp,(2,_2)_ - 1 Y_tilde_Merck_Sharp,2_ + 1 N_Merck_Sharp,(2,_2)_ >= -2.9279250000000004e7
c733: 4.193333333333333 Q_HPV,Merck_Sharp,(2,_3),1_ + 4.109466666666667 Q_HPV,Merck_Sharp,(2,_3),2_ + 3.9836666666666667 Q_HPV,Merck_Sharp,(2,_3),3_ - 1 N_Merck_Sharp,(2,_3)_ >= 0
c734: -5.855850000000001e7 W_Merck_Sharp,(2,_3)_ - 1 Y_tilde_Merck_Sharp,2_ + 1 N_Merck_Sharp,(2,_3)_ >= -5.855850000000001e7
c735: 4.193333333333333 Q_HPV,Merck_Sharp,(2,_4),1_ + 4.109466666666667 Q_HPV,Merck_Sharp,(2,_4),2_ + 3.9836666666666667 Q_HPV,Merck_Sharp,(2,_4),3_ - 1 N_Merck_Sharp,(2,_4)_ >= 0
c736: -8.783775000000001e7 W_Merck_Sharp,(2,_4)_ - 1 Y_tilde_Merck_Sharp,2_ + 1 N_Merck_Sharp,(2,_4)_ >= -8.783775000000001e7
c737: 4.193333333333333 Q_HPV,Merck_Sharp,(2,_5),1_ + 4.109466666666667 Q_HPV,Merck_Sharp,(2,_5),2_ + 3.9836666666666667 Q_HPV,Merck_Sharp,(2,_5),3_ - 1 N_Merck_Sharp,(2,_5)_ >= 0
c738: -1.1711700000000001e8 W_Merck_Sharp,(2,_5)_ - 1 Y_tilde_Merck_Sharp,2_ + 1 N_Merck_Sharp,(2,_5)_ >= -1.1711700000000001e8
c739: 4.193333333333333 Q_HPV,Merck_Sharp,(2,_6),1_ + 4.109466666666667 Q_HPV,Merck_Sharp,(2,_6),2_ + 3.9836666666666667 Q_HPV,Merck_Sharp,(2,_6),3_ - 1 N_Merck_Sharp,(2,_6)_ >= 0
c740: -1.4639625000000003e8 W_Merck_Sharp,(2,_6)_ - 1 Y_tilde_Merck_Sharp,2_ + 1 N_Merck_Sharp,(2,_6)_ >= -1.4639625000000003e8
c741: 4.193333333333333 Q_HPV,Merck_Sharp,(3,_3),1_ + 4.109466666666667 Q_HPV,Merck_Sharp,(3,_3),2_ + 3.9836666666666667 Q_HPV,Merck_Sharp,(3,_3),3_ - 1 N_Merck_Sharp,(3,_3)_ >= 0
c742: -2.9279250000000004e7 W_Merck_Sharp,(3,_3)_ - 1 Y_tilde_Merck_Sharp,3_ + 1 N_Merck_Sharp,(3,_3)_ >= -2.9279250000000004e7
c743: 4.193333333333333 Q_HPV,Merck_Sharp,(3,_4),1_ + 4.109466666666667 Q_HPV,Merck_Sharp,(3,_4),2_ + 3.9836666666666667 Q_HPV,Merck_Sharp,(3,_4),3_ - 1 N_Merck_Sharp,(3,_4)_ >= 0
c744: -5.855850000000001e7 W_Merck_Sharp,(3,_4)_ - 1 Y_tilde_Merck_Sharp,3_ + 1 N_Merck_Sharp,(3,_4)_ >= -5.855850000000001e7
c745: 4.193333333333333 Q_HPV,Merck_Sharp,(3,_5),1_ + 4.109466666666667 Q_HPV,Merck_Sharp,(3,_5),2_ + 3.9836666666666667 Q_HPV,Merck_Sharp,(3,_5),3_ - 1 N_Merck_Sharp,(3,_5)_ >= 0
c746: -8.783775000000001e7 W_Merck_Sharp,(3,_5)_ - 1 Y_tilde_Merck_Sharp,3_ + 1 N_Merck_Sharp,(3,_5)_ >= -8.783775000000001e7
c747: 4.193333333333333 Q_HPV,Merck_Sharp,(3,_6),1_ + 4.109466666666667 Q_HPV,Merck_Sharp,(3,_6),2_ + 3.9836666666666667 Q_HPV,Merck_Sharp,(3,_6),3_ - 1 N_Merck_Sharp,(3,_6)_ >= 0
c748: -1.1711700000000001e8 W_Merck_Sharp,(3,_6)_ - 1 Y_tilde_Merck_Sharp,3_ + 1 N_Merck_Sharp,(3,_6)_ >= -1.1711700000000001e8
c749: 4.193333333333333 Q_HPV,Merck_Sharp,(3,_7),1_ + 4.109466666666667 Q_HPV,Merck_Sharp,(3,_7),2_ + 3.9836666666666667 Q_HPV,Merck_Sharp,(3,_7),3_ - 1 N_Merck_Sharp,(3,_7)_ >= 0
c750: -1.4639625000000003e8 W_Merck_Sharp,(3,_7)_ - 1 Y_tilde_Merck_Sharp,3_ + 1 N_Merck_Sharp,(3,_7)_ >= -1.4639625000000003e8
c751: 4.193333333333333 Q_HPV,Merck_Sharp,(4,_4),1_ + 4.109466666666667 Q_HPV,Merck_Sharp,(4,_4),2_ + 3.9836666666666667 Q_HPV,Merck_Sharp,(4,_4),3_ - 1 N_Merck_Sharp,(4,_4)_ >= 0
c752: -2.9279250000000004e7 W_Merck_Sharp,(4,_4)_ - 1 Y_tilde_Merck_Sharp,4_ + 1 N_Merck_Sharp,(4,_4)_ >= -2.9279250000000004e7
c753: 4.193333333333333 Q_HPV,Merck_Sharp,(4,_5),1_ + 4.109466666666667 Q_HPV,Merck_Sharp,(4,_5),2_ + 3.9836666666666667 Q_HPV,Merck_Sharp,(4,_5),3_ - 1 N_Merck_Sharp,(4,_5)_ >= 0
c754: -5.855850000000001e7 W_Merck_Sharp,(4,_5)_ - 1 Y_tilde_Merck_Sharp,4_ + 1 N_Merck_Sharp,(4,_5)_ >= -5.855850000000001e7
c755: 4.193333333333333 Q_HPV,Merck_Sharp,(4,_6),1_ + 4.109466666666667 Q_HPV,Merck_Sharp,(4,_6),2_ + 3.9836666666666667 Q_HPV,Merck_Sharp,(4,_6),3_ - 1 N_Merck_Sharp,(4,_6)_ >= 0
c756: -8.783775000000001e7 W_Merck_Sharp,(4,_6)_ - 1 Y_tilde_Merck_Sharp,4_ + 1 N_Merck_Sharp,(4,_6)_ >= -8.783775000000001e7
c757: 4.193333333333333 Q_HPV,Merck_Sharp,(4,_7),1_ + 4.109466666666667 Q_HPV,Merck_Sharp,(4,_7),2_ + 3.9836666666666667 Q_HPV,Merck_Sharp,(4,_7),3_ - 1 N_Merck_Sharp,(4,_7)_ >= 0
c758: -1.1711700000000001e8 W_Merck_Sharp,(4,_7)_ - 1 Y_tilde_Merck_Sharp,4_ + 1 N_Merck_Sharp,(4,_7)_ >= -1.1711700000000001e8
c759: 4.193333333333333 Q_HPV,Merck_Sharp,(4,_8),1_ + 4.109466666666667 Q_HPV,Merck_Sharp,(4,_8),2_ + 3.9836666666666667 Q_HPV,Merck_Sharp,(4,_8),3_ - 1 N_Merck_Sharp,(4,_8)_ >= 0
c760: -1.4639625000000003e8 W_Merck_Sharp,(4,_8)_ - 1 Y_tilde_Merck_Sharp,4_ + 1 N_Merck_Sharp,(4,_8)_ >= -1.4639625000000003e8
c761: 4.193333333333333 Q_HPV,Merck_Sharp,(5,_5),1_ + 4.109466666666667 Q_HPV,Merck_Sharp,(5,_5),2_ + 3.9836666666666667 Q_HPV,Merck_Sharp,(5,_5),3_ - 1 N_Merck_Sharp,(5,_5)_ >= 0
c762: -2.9279250000000004e7 W_Merck_Sharp,(5,_5)_ - 1 Y_tilde_Merck_Sharp,5_ + 1 N_Merck_Sharp,(5,_5)_ >= -2.9279250000000004e7
c763: 4.193333333333333 Q_HPV,Merck_Sharp,(5,_6),1_ + 4.109466666666667 Q_HPV,Merck_Sharp,(5,_6),2_ + 3.9836666666666667 Q_HPV,Merck_Sharp,(5,_6),3_ - 1 N_Merck_Sharp,(5,_6)_ >= 0
c764: -5.855850000000001e7 W_Merck_Sharp,(5,_6)_ - 1 Y_tilde_Merck_Sharp,5_ + 1 N_Merck_Sharp,(5,_6)_ >= -5.855850000000001e7
c765: 4.193333333333333 Q_HPV,Merck_Sharp,(5,_7),1_ + 4.109466666666667 Q_HPV,Merck_Sharp,(5,_7),2_ + 3.9836666666666667 Q_HPV,Merck_Sharp,(5,_7),3_ - 1 N_Merck_Sharp,(5,_7)_ >= 0
c766: -8.783775000000001e7 W_Merck_Sharp,(5,_7)_ - 1 Y_tilde_Merck_Sharp,5_ + 1 N_Merck_Sharp,(5,_7)_ >= -8.783775000000001e7
c767: 4.193333333333333 Q_HPV,Merck_Sharp,(5,_8),1_ + 4.109466666666667 Q_HPV,Merck_Sharp,(5,_8),2_ + 3.9836666666666667 Q_HPV,Merck_Sharp,(5,_8),3_ - 1 N_Merck_Sharp,(5,_8)_ >= 0
c768: -1.1711700000000001e8 W_Merck_Sharp,(5,_8)_ - 1 Y_tilde_Merck_Sharp,5_ + 1 N_Merck_Sharp,(5,_8)_ >= -1.1711700000000001e8
c769: 4.193333333333333 Q_HPV,Merck_Sharp,(5,_9),1_ + 4.109466666666667 Q_HPV,Merck_Sharp,(5,_9),2_ + 3.9836666666666667 Q_HPV,Merck_Sharp,(5,_9),3_ - 1 N_Merck_Sharp,(5,_9)_ >= 0
c770: -1.4639625000000003e8 W_Merck_Sharp,(5,_9)_ - 1 Y_tilde_Merck_Sharp,5_ + 1 N_Merck_Sharp,(5,_9)_ >= -1.4639625000000003e8
c771: 4.193333333333333 Q_HPV,Merck_Sharp,(6,_6),1_ + 4.109466666666667 Q_HPV,Merck_Sharp,(6,_6),2_ + 3.9836666666666667 Q_HPV,Merck_Sharp,(6,_6),3_ - 1 N_Merck_Sharp,(6,_6)_ >= 0
c772: -2.9279250000000004e7 W_Merck_Sharp,(6,_6)_ - 1 Y_tilde_Merck_Sharp,6_ + 1 N_Merck_Sharp,(6,_6)_ >= -2.9279250000000004e7
c773: 4.193333333333333 Q_HPV,Merck_Sharp,(6,_7),1_ + 4.109466666666667 Q_HPV,Merck_Sharp,(6,_7),2_ + 3.9836666666666667 Q_HPV,Merck_Sharp,(6,_7),3_ - 1 N_Merck_Sharp,(6,_7)_ >= 0
c774: -5.855850000000001e7 W_Merck_Sharp,(6,_7)_ - 1 Y_tilde_Merck_Sharp,6_ + 1 N_Merck_Sharp,(6,_7)_ >= -5.855850000000001e7
c775: 4.193333333333333 Q_HPV,Merck_Sharp,(6,_8),1_ + 4.109466666666667 Q_HPV,Merck_Sharp,(6,_8),2_ + 3.9836666666666667 Q_HPV,Merck_Sharp,(6,_8),3_ - 1 N_Merck_Sharp,(6,_8)_ >= 0
c776: -8.783775000000001e7 W_Merck_Sharp,(6,_8)_ - 1 Y_tilde_Merck_Sharp,6_ + 1 N_Merck_Sharp,(6,_8)_ >= -8.783775000000001e7
c777: 4.193333333333333 Q_HPV,Merck_Sharp,(6,_9),1_ + 4.109466666666667 Q_HPV,Merck_Sharp,(6,_9),2_ + 3.9836666666666667 Q_HPV,Merck_Sharp,(6,_9),3_ - 1 N_Merck_Sharp,(6,_9)_ >= 0
c778: -1.1711700000000001e8 W_Merck_Sharp,(6,_9)_ - 1 Y_tilde_Merck_Sharp,6_ + 1 N_Merck_Sharp,(6,_9)_ >= -1.1711700000000001e8
c779: 4.193333333333333 Q_HPV,Merck_Sharp,(6,_10),1_ + 4.109466666666667 Q_HPV,Merck_Sharp,(6,_10),2_ + 3.9836666666666667 Q_HPV,Merck_Sharp,(6,_10),3_ - 1 N_Merck_Sharp,(6,_10)_ >= 0
c780: -1.4639625000000003e8 W_Merck_Sharp,(6,_10)_ - 1 Y_tilde_Merck_Sharp,6_ + 1 N_Merck_Sharp,(6,_10)_ >= -1.4639625000000003e8
c781: 4.193333333333333 Q_HPV,Merck_Sharp,(7,_7),1_ + 4.109466666666667 Q_HPV,Merck_Sharp,(7,_7),2_ + 3.9836666666666667 Q_HPV,Merck_Sharp,(7,_7),3_ - 1 N_Merck_Sharp,(7,_7)_ >= 0
c782: -2.9279250000000004e7 W_Merck_Sharp,(7,_7)_ - 1 Y_tilde_Merck_Sharp,7_ + 1 N_Merck_Sharp,(7,_7)_ >= -2.9279250000000004e7
c783: 4.193333333333333 Q_HPV,Merck_Sharp,(7,_8),1_ + 4.109466666666667 Q_HPV,Merck_Sharp,(7,_8),2_ + 3.9836666666666667 Q_HPV,Merck_Sharp,(7,_8),3_ - 1 N_Merck_Sharp,(7,_8)_ >= 0
c784: -5.855850000000001e7 W_Merck_Sharp,(7,_8)_ - 1 Y_tilde_Merck_Sharp,7_ + 1 N_Merck_Sharp,(7,_8)_ >= -5.855850000000001e7
c785: 4.193333333333333 Q_HPV,Merck_Sharp,(7,_9),1_ + 4.109466666666667 Q_HPV,Merck_Sharp,(7,_9),2_ + 3.9836666666666667 Q_HPV,Merck_Sharp,(7,_9),3_ - 1 N_Merck_Sharp,(7,_9)_ >= 0
c786: -8.783775000000001e7 W_Merck_Sharp,(7,_9)_ - 1 Y_tilde_Merck_Sharp,7_ + 1 N_Merck_Sharp,(7,_9)_ >= -8.783775000000001e7
c787: 4.193333333333333 Q_HPV,Merck_Sharp,(7,_10),1_ + 4.109466666666667 Q_HPV,Merck_Sharp,(7,_10),2_ + 3.9836666666666667 Q_HPV,Merck_Sharp,(7,_10),3_ - 1 N_Merck_Sharp,(7,_10)_ >= 0
c788: -1.1711700000000001e8 W_Merck_Sharp,(7,_10)_ - 1 Y_tilde_Merck_Sharp,7_ + 1 N_Merck_Sharp,(7,_10)_ >= -1.1711700000000001e8
c789: 4.193333333333333 Q_HPV,Merck_Sharp,(8,_8),1_ + 4.109466666666667 Q_HPV,Merck_Sharp,(8,_8),2_ + 3.9836666666666667 Q_HPV,Merck_Sharp,(8,_8),3_ - 1 N_Merck_Sharp,(8,_8)_ >= 0
c790: -2.9279250000000004e7 W_Merck_Sharp,(8,_8)_ - 1 Y_tilde_Merck_Sharp,8_ + 1 N_Merck_Sharp,(8,_8)_ >= -2.9279250000000004e7
c791: 4.193333333333333 Q_HPV,Merck_Sharp,(8,_9),1_ + 4.109466666666667 Q_HPV,Merck_Sharp,(8,_9),2_ + 3.9836666666666667 Q_HPV,Merck_Sharp,(8,_9),3_ - 1 N_Merck_Sharp,(8,_9)_ >= 0
c792: -5.855850000000001e7 W_Merck_Sharp,(8,_9)_ - 1 Y_tilde_Merck_Sharp,8_ + 1 N_Merck_Sharp,(8,_9)_ >= -5.855850000000001e7
c793: 4.193333333333333 Q_HPV,Merck_Sharp,(8,_10),1_ + 4.109466666666667 Q_HPV,Merck_Sharp,(8,_10),2_ + 3.9836666666666667 Q_HPV,Merck_Sharp,(8,_10),3_ - 1 N_Merck_Sharp,(8,_10)_ >= 0
c794: -8.783775000000001e7 W_Merck_Sharp,(8,_10)_ - 1 Y_tilde_Merck_Sharp,8_ + 1 N_Merck_Sharp,(8,_10)_ >= -8.783775000000001e7
c795: 4.193333333333333 Q_HPV,Merck_Sharp,(9,_9),1_ + 4.109466666666667 Q_HPV,Merck_Sharp,(9,_9),2_ + 3.9836666666666667 Q_HPV,Merck_Sharp,(9,_9),3_ - 1 N_Merck_Sharp,(9,_9)_ >= 0
c796: -2.9279250000000004e7 W_Merck_Sharp,(9,_9)_ - 1 Y_tilde_Merck_Sharp,9_ + 1 N_Merck_Sharp,(9,_9)_ >= -2.9279250000000004e7
c797: 4.193333333333333 Q_HPV,Merck_Sharp,(9,_10),1_ + 4.109466666666667 Q_HPV,Merck_Sharp,(9,_10),2_ + 3.9836666666666667 Q_HPV,Merck_Sharp,(9,_10),3_ - 1 N_Merck_Sharp,(9,_10)_ >= 0
c798: -5.855850000000001e7 W_Merck_Sharp,(9,_10)_ - 1 Y_tilde_Merck_Sharp,9_ + 1 N_Merck_Sharp,(9,_10)_ >= -5.855850000000001e7
c799: 4.193333333333333 Q_HPV,Merck_Sharp,(10,_10),1_ + 4.109466666666667 Q_HPV,Merck_Sharp,(10,_10),2_ + 3.9836666666666667 Q_HPV,Merck_Sharp,(10,_10),3_ - 1 N_Merck_Sharp,(10,_10)_ >= 0
c800: -2.9279250000000004e7 W_Merck_Sharp,(10,_10)_ - 1 Y_tilde_Merck_Sharp,10_ + 1 N_Merck_Sharp,(10,_10)_ >= -2.9279250000000004e7
c801: 0.13305 Q_OPV,Panacea_Biotec,(1,_1),1_ + 0.130389 Q_OPV,Panacea_Biotec,(1,_1),2_ + 0.1263975 Q_OPV,Panacea_Biotec,(1,_1),3_ + 0.9686999999999999 Q_Penta,Panacea_Biotec,(1,_1),1_ + 0.9493259999999999 Q_Penta,Panacea_Biotec,(1,_1),2_ + 0.9202649999999999 Q_Penta,Panacea_Biotec,(1,_1),3_ - 1 N_Panacea_Biotec,(1,_1)_ >= 0
c802: -2.0448986250000015e7 W_Panacea_Biotec,(1,_1)_ - 1 Y_tilde_Panacea_Biotec,1_ + 1 N_Panacea_Biotec,(1,_1)_ >= -2.0448986250000015e7
c803: 0.13305 Q_OPV,Panacea_Biotec,(1,_2),1_ + 0.130389 Q_OPV,Panacea_Biotec,(1,_2),2_ + 0.1263975 Q_OPV,Panacea_Biotec,(1,_2),3_ + 0.9686999999999999 Q_Penta,Panacea_Biotec,(1,_2),1_ + 0.9493259999999999 Q_Penta,Panacea_Biotec,(1,_2),2_ + 0.9202649999999999 Q_Penta,Panacea_Biotec,(1,_2),3_ - 1 N_Panacea_Biotec,(1,_2)_ >= 0
c804: -4.089797250000003e7 W_Panacea_Biotec,(1,_2)_ - 1 Y_tilde_Panacea_Biotec,1_ + 1 N_Panacea_Biotec,(1,_2)_ >= -4.089797250000003e7
c805: 0.13305 Q_OPV,Panacea_Biotec,(1,_3),1_ + 0.130389 Q_OPV,Panacea_Biotec,(1,_3),2_ + 0.1263975 Q_OPV,Panacea_Biotec,(1,_3),3_ + 0.9686999999999999 Q_Penta,Panacea_Biotec,(1,_3),1_ + 0.9493259999999999 Q_Penta,Panacea_Biotec,(1,_3),2_ + 0.9202649999999999 Q_Penta,Panacea_Biotec,(1,_3),3_ - 1 N_Panacea_Biotec,(1,_3)_ >= 0
c806: -6.1346958750000045e7 W_Panacea_Biotec,(1,_3)_ - 1 Y_tilde_Panacea_Biotec,1_ + 1 N_Panacea_Biotec,(1,_3)_ >= -6.1346958750000045e7
c807: 0.13305 Q_OPV,Panacea_Biotec,(1,_4),1_ + 0.130389 Q_OPV,Panacea_Biotec,(1,_4),2_ + 0.1263975 Q_OPV,Panacea_Biotec,(1,_4),3_ + 0.9686999999999999 Q_Penta,Panacea_Biotec,(1,_4),1_ + 0.9493259999999999 Q_Penta,Panacea_Biotec,(1,_4),2_ + 0.9202649999999999 Q_Penta,Panacea_Biotec,(1,_4),3_ - 1 N_Panacea_Biotec,(1,_4)_ >= 0
c808: -8.179594500000004e7 W_Panacea_Biotec,(1,_4)_ - 1 Y_tilde_Panacea_Biotec,1_ + 1 N_Panacea_Biotec,(1,_4)_ >= -8.179594500000004e7
c809: 0.13305 Q_OPV,Panacea_Biotec,(1,_5),1_ + 0.130389 Q_OPV,Panacea_Biotec,(1,_5),2_ + 0.1263975 Q_OPV,Panacea_Biotec,(1,_5),3_ + 0.9686999999999999 Q_Penta,Panacea_Biotec,(1,_5),1_ + 0.9493259999999999 Q_Penta,Panacea_Biotec,(1,_5),2_ + 0.9202649999999999 Q_Penta,Panacea_Biotec,(1,_5),3_ - 1 N_Panacea_Biotec,(1,_5)_ >= 0
c810: -1.0224493125000004e8 W_Panacea_Biotec,(1,_5)_ - 1 Y_tilde_Panacea_Biotec,1_ + 1 N_Panacea_Biotec,(1,_5)_ >= -1.0224493125000004e8
c811: 0.13693750000000002 Q_OPV,Panacea_Biotec,(2,_2),1_ + 0.13419875 Q_OPV,Panacea_Biotec,(2,_2),2_ + 0.13009062500000002 Q_OPV,Panacea_Biotec,(2,_2),3_ + 0.9686999999999999 Q_Penta,Panacea_Biotec,(2,_2),1_ + 0.9493259999999999 Q_Penta,Panacea_Biotec,(2,_2),2_ + 0.9202649999999999 Q_Penta,Panacea_Biotec,(2,_2),3_ - 1 N_Panacea_Biotec,(2,_2)_ >= 0
c812: -2.0448986250000015e7 W_Panacea_Biotec,(2,_2)_ - 1 Y_tilde_Panacea_Biotec,2_ + 1 N_Panacea_Biotec,(2,_2)_ >= -2.0448986250000015e7
c813: 0.13693750000000002 Q_OPV,Panacea_Biotec,(2,_3),1_ + 0.13419875 Q_OPV,Panacea_Biotec,(2,_3),2_ + 0.13009062500000002 Q_OPV,Panacea_Biotec,(2,_3),3_ + 0.9686999999999999 Q_Penta,Panacea_Biotec,(2,_3),1_ + 0.9493259999999999 Q_Penta,Panacea_Biotec,(2,_3),2_ + 0.9202649999999999 Q_Penta,Panacea_Biotec,(2,_3),3_ - 1 N_Panacea_Biotec,(2,_3)_ >= 0
c814: -4.089797250000003e7 W_Panacea_Biotec,(2,_3)_ - 1 Y_tilde_Panacea_Biotec,2_ + 1 N_Panacea_Biotec,(2,_3)_ >= -4.089797250000003e7
c815: 0.13693750000000002 Q_OPV,Panacea_Biotec,(2,_4),1_ + 0.13419875 Q_OPV,Panacea_Biotec,(2,_4),2_ + 0.13009062500000002 Q_OPV,Panacea_Biotec,(2,_4),3_ + 0.9686999999999999 Q_Penta,Panacea_Biotec,(2,_4),1_ + 0.9493259999999999 Q_Penta,Panacea_Biotec,(2,_4),2_ + 0.9202649999999999 Q_Penta,Panacea_Biotec,(2,_4),3_ - 1 N_Panacea_Biotec,(2,_4)_ >= 0
c816: -6.1346958750000045e7 W_Panacea_Biotec,(2,_4)_ - 1 Y_tilde_Panacea_Biotec,2_ + 1 N_Panacea_Biotec,(2,_4)_ >= -6.1346958750000045e7
c817: 0.13693750000000002 Q_OPV,Panacea_Biotec,(2,_5),1_ + 0.13419875 Q_OPV,Panacea_Biotec,(2,_5),2_ + 0.13009062500000002 Q_OPV,Panacea_Biotec,(2,_5),3_ + 0.9686999999999999 Q_Penta,Panacea_Biotec,(2,_5),1_ + 0.9493259999999999 Q_Penta,Panacea_Biotec,(2,_5),2_ + 0.9202649999999999 Q_Penta,Panacea_Biotec,(2,_5),3_ - 1 N_Panacea_Biotec,(2,_5)_ >= 0
c818: -8.179594500000004e7 W_Panacea_Biotec,(2,_5)_ - 1 Y_tilde_Panacea_Biotec,2_ + 1 N_Panacea_Biotec,(2,_5)_ >= -8.179594500000004e7
c819: 0.13693750000000002 Q_OPV,Panacea_Biotec,(2,_6),1_ + 0.13419875 Q_OPV,Panacea_Biotec,(2,_6),2_ + 0.13009062500000002 Q_OPV,Panacea_Biotec,(2,_6),3_ + 0.9686999999999999 Q_Penta,Panacea_Biotec,(2,_6),1_ + 0.9493259999999999 Q_Penta,Panacea_Biotec,(2,_6),2_ + 0.9202649999999999 Q_Penta,Panacea_Biotec,(2,_6),3_ - 1 N_Panacea_Biotec,(2,_6)_ >= 0
c820: -1.0224493125000004e8 W_Panacea_Biotec,(2,_6)_ - 1 Y_tilde_Panacea_Biotec,2_ + 1 N_Panacea_Biotec,(2,_6)_ >= -1.0224493125000004e8
c821: 0.13693750000000002 Q_OPV,Panacea_Biotec,(3,_3),1_ + 0.13419875 Q_OPV,Panacea_Biotec,(3,_3),2_ + 0.13009062500000002 Q_OPV,Panacea_Biotec,(3,_3),3_ + 0.9880000000000001 Q_Penta,Panacea_Biotec,(3,_3),1_ + 0.9682400000000001 Q_Penta,Panacea_Biotec,(3,_3),2_ + 0.9386000000000001 Q_Penta,Panacea_Biotec,(3,_3),3_ - 1 N_Panacea_Biotec,(3,_3)_ >= 0
c822: -2.0448986250000015e7 W_Panacea_Biotec,(3,_3)_ - 1 Y_tilde_Panacea_Biotec,3_ + 1 N_Panacea_Biotec,(3,_3)_ >= -2.0448986250000015e7
c823: 0.13693750000000002 Q_OPV,Panacea_Biotec,(3,_4),1_ + 0.13419875 Q_OPV,Panacea_Biotec,(3,_4),2_ + 0.13009062500000002 Q_OPV,Panacea_Biotec,(3,_4),3_ + 0.9880000000000001 Q_Penta,Panacea_Biotec,(3,_4),1_ + 0.9682400000000001 Q_Penta,Panacea_Biotec,(3,_4),2_ + 0.9386000000000001 Q_Penta,Panacea_Biotec,(3,_4),3_ - 1 N_Panacea_Biotec,(3,_4)_ >= 0
c824: -4.089797250000003e7 W_Panacea_Biotec,(3,_4)_ - 1 Y_tilde_Panacea_Biotec,3_ + 1 N_Panacea_Biotec,(3,_4)_ >= -4.089797250000003e7
c825: 0.13693750000000002 Q_OPV,Panacea_Biotec,(3,_5),1_ + 0.13419875 Q_OPV,Panacea_Biotec,(3,_5),2_ + 0.13009062500000002 Q_OPV,Panacea_Biotec,(3,_5),3_ + 0.9880000000000001 Q_Penta,Panacea_Biotec,(3,_5),1_ + 0.9682400000000001 Q_Penta,Panacea_Biotec,(3,_5),2_ + 0.9386000000000001 Q_Penta,Panacea_Biotec,(3,_5),3_ - 1 N_Panacea_Biotec,(3,_5)_ >= 0
c826: -6.1346958750000045e7 W_Panacea_Biotec,(3,_5)_ - 1 Y_tilde_Panacea_Biotec,3_ + 1 N_Panacea_Biotec,(3,_5)_ >= -6.1346958750000045e7
c827: 0.13693750000000002 Q_OPV,Panacea_Biotec,(3,_6),1_ + 0.13419875 Q_OPV,Panacea_Biotec,(3,_6),2_ + 0.13009062500000002 Q_OPV,Panacea_Biotec,(3,_6),3_ + 0.9880000000000001 Q_Penta,Panacea_Biotec,(3,_6),1_ + 0.9682400000000001 Q_Penta,Panacea_Biotec,(3,_6),2_ + 0.9386000000000001 Q_Penta,Panacea_Biotec,(3,_6),3_ - 1 N_Panacea_Biotec,(3,_6)_ >= 0
c828: -8.179594500000004e7 W_Panacea_Biotec,(3,_6)_ - 1 Y_tilde_Panacea_Biotec,3_ + 1 N_Panacea_Biotec,(3,_6)_ >= -8.179594500000004e7
c829: 0.13693750000000002 Q_OPV,Panacea_Biotec,(3,_7),1_ + 0.13419875 Q_OPV,Panacea_Biotec,(3,_7),2_ + 0.13009062500000002 Q_OPV,Panacea_Biotec,(3,_7),3_ + 0.9880000000000001 Q_Penta,Panacea_Biotec,(3,_7),1_ + 0.9682400000000001 Q_Penta,Panacea_Biotec,(3,_7),2_ + 0.9386000000000001 Q_Penta,Panacea_Biotec,(3,_7),3_ - 1 N_Panacea_Biotec,(3,_7)_ >= 0
c830: -1.0224493125000004e8 W_Panacea_Biotec,(3,_7)_ - 1 Y_tilde_Panacea_Biotec,3_ + 1 N_Panacea_Biotec,(3,_7)_ >= -1.0224493125000004e8
c831: 0.13693750000000002 Q_OPV,Panacea_Biotec,(4,_4),1_ + 0.13419875 Q_OPV,Panacea_Biotec,(4,_4),2_ + 0.13009062500000002 Q_OPV,Panacea_Biotec,(4,_4),3_ + 0.9880000000000001 Q_Penta,Panacea_Biotec,(4,_4),1_ + 0.9682400000000001 Q_Penta,Panacea_Biotec,(4,_4),2_ + 0.9386000000000001 Q_Penta,Panacea_Biotec,(4,_4),3_ - 1 N_Panacea_Biotec,(4,_4)_ >= 0
c832: -2.0448986250000015e7 W_Panacea_Biotec,(4,_4)_ - 1 Y_tilde_Panacea_Biotec,4_ + 1 N_Panacea_Biotec,(4,_4)_ >= -2.0448986250000015e7
c833: 0.13693750000000002 Q_OPV,Panacea_Biotec,(4,_5),1_ + 0.13419875 Q_OPV,Panacea_Biotec,(4,_5),2_ + 0.13009062500000002 Q_OPV,Panacea_Biotec,(4,_5),3_ + 0.9880000000000001 Q_Penta,Panacea_Biotec,(4,_5),1_ + 0.9682400000000001 Q_Penta,Panacea_Biotec,(4,_5),2_ + 0.9386000000000001 Q_Penta,Panacea_Biotec,(4,_5),3_ - 1 N_Panacea_Biotec,(4,_5)_ >= 0
c834: -4.089797250000003e7 W_Panacea_Biotec,(4,_5)_ - 1 Y_tilde_Panacea_Biotec,4_ + 1 N_Panacea_Biotec,(4,_5)_ >= -4.089797250000003e7
c835: 0.13693750000000002 Q_OPV,Panacea_Biotec,(4,_6),1_ + 0.13419875 Q_OPV,Panacea_Biotec,(4,_6),2_ + 0.13009062500000002 Q_OPV,Panacea_Biotec,(4,_6),3_ + 0.9880000000000001 Q_Penta,Panacea_Biotec,(4,_6),1_ + 0.9682400000000001 Q_Penta,Panacea_Biotec,(4,_6),2_ + 0.9386000000000001 Q_Penta,Panacea_Biotec,(4,_6),3_ - 1 N_Panacea_Biotec,(4,_6)_ >= 0
c836: -6.1346958750000045e7 W_Panacea_Biotec,(4,_6)_ - 1 Y_tilde_Panacea_Biotec,4_ + 1 N_Panacea_Biotec,(4,_6)_ >= -6.1346958750000045e7
c837: 0.13693750000000002 Q_OPV,Panacea_Biotec,(4,_7),1_ + 0.13419875 Q_OPV,Panacea_Biotec,(4,_7),2_ + 0.13009062500000002 Q_OPV,Panacea_Biotec,(4,_7),3_ + 0.9880000000000001 Q_Penta,Panacea_Biotec,(4,_7),1_ + 0.9682400000000001 Q_Penta,Panacea_Biotec,(4,_7),2_ + 0.9386000000000001 Q_Penta,Panacea_Biotec,(4,_7),3_ - 1 N_Panacea_Biotec,(4,_7)_ >= 0
c838: -8.179594500000004e7 W_Panacea_Biotec,(4,_7)_ - 1 Y_tilde_Panacea_Biotec,4_ + 1 N_Panacea_Biotec,(4,_7)_ >= -8.179594500000004e7
c839: 0.13693750000000002 Q_OPV,Panacea_Biotec,(4,_8),1_ + 0.13419875 Q_OPV,Panacea_Biotec,(4,_8),2_ + 0.13009062500000002 Q_OPV,Panacea_Biotec,(4,_8),3_ + 0.9880000000000001 Q_Penta,Panacea_Biotec,(4,_8),1_ + 0.9682400000000001 Q_Penta,Panacea_Biotec,(4,_8),2_ + 0.9386000000000001 Q_Penta,Panacea_Biotec,(4,_8),3_ - 1 N_Panacea_Biotec,(4,_8)_ >= 0
c840: -1.0224493125000004e8 W_Panacea_Biotec,(4,_8)_ - 1 Y_tilde_Panacea_Biotec,4_ + 1 N_Panacea_Biotec,(4,_8)_ >= -1.0224493125000004e8
c841: 0.13693750000000002 Q_OPV,Panacea_Biotec,(5,_5),1_ + 0.13419875 Q_OPV,Panacea_Biotec,(5,_5),2_ + 0.13009062500000002 Q_OPV,Panacea_Biotec,(5,_5),3_ + 1.001 Q_Penta,Panacea_Biotec,(5,_5),1_ + 0.9809799999999999 Q_Penta,Panacea_Biotec,(5,_5),2_ + 0.9509499999999999 Q_Penta,Panacea_Biotec,(5,_5),3_ - 1 N_Panacea_Biotec,(5,_5)_ >= 0
c842: -2.0448986250000015e7 W_Panacea_Biotec,(5,_5)_ - 1 Y_tilde_Panacea_Biotec,5_ + 1 N_Panacea_Biotec,(5,_5)_ >= -2.0448986250000015e7
c843: 0.13693750000000002 Q_OPV,Panacea_Biotec,(5,_6),1_ + 0.13419875 Q_OPV,Panacea_Biotec,(5,_6),2_ + 0.13009062500000002 Q_OPV,Panacea_Biotec,(5,_6),3_ + 1.001 Q_Penta,Panacea_Biotec,(5,_6),1_ + 0.9809799999999999 Q_Penta,Panacea_Biotec,(5,_6),2_ + 0.9509499999999999 Q_Penta,Panacea_Biotec,(5,_6),3_ - 1 N_Panacea_Biotec,(5,_6)_ >= 0
c844: -4.089797250000003e7 W_Panacea_Biotec,(5,_6)_ - 1 Y_tilde_Panacea_Biotec,5_ + 1 N_Panacea_Biotec,(5,_6)_ >= -4.089797250000003e7
c845: 0.13693750000000002 Q_OPV,Panacea_Biotec,(5,_7),1_ + 0.13419875 Q_OPV,Panacea_Biotec,(5,_7),2_ + 0.13009062500000002 Q_OPV,Panacea_Biotec,(5,_7),3_ + 1.001 Q_Penta,Panacea_Biotec,(5,_7),1_ + 0.9809799999999999 Q_Penta,Panacea_Biotec,(5,_7),2_ + 0.9509499999999999 Q_Penta,Panacea_Biotec,(5,_7),3_ - 1 N_Panacea_Biotec,(5,_7)_ >= 0
c846: -6.1346958750000045e7 W_Panacea_Biotec,(5,_7)_ - 1 Y_tilde_Panacea_Biotec,5_ + 1 N_Panacea_Biotec,(5,_7)_ >= -6.1346958750000045e7
c847: 0.13693750000000002 Q_OPV,Panacea_Biotec,(5,_8),1_ + 0.13419875 Q_OPV,Panacea_Biotec,(5,_8),2_ + 0.13009062500000002 Q_OPV,Panacea_Biotec,(5,_8),3_ + 1.001 Q_Penta,Panacea_Biotec,(5,_8),1_ + 0.9809799999999999 Q_Penta,Panacea_Biotec,(5,_8),2_ + 0.9509499999999999 Q_Penta,Panacea_Biotec,(5,_8),3_ - 1 N_Panacea_Biotec,(5,_8)_ >= 0
c848: -8.179594500000004e7 W_Panacea_Biotec,(5,_8)_ - 1 Y_tilde_Panacea_Biotec,5_ + 1 N_Panacea_Biotec,(5,_8)_ >= -8.179594500000004e7
c849: 0.13693750000000002 Q_OPV,Panacea_Biotec,(5,_9),1_ + 0.13419875 Q_OPV,Panacea_Biotec,(5,_9),2_ + 0.13009062500000002 Q_OPV,Panacea_Biotec,(5,_9),3_ + 1.001 Q_Penta,Panacea_Biotec,(5,_9),1_ + 0.9809799999999999 Q_Penta,Panacea_Biotec,(5,_9),2_ + 0.9509499999999999 Q_Penta,Panacea_Biotec,(5,_9),3_ - 1 N_Panacea_Biotec,(5,_9)_ >= 0
c850: -1.0224493125000004e8 W_Panacea_Biotec,(5,_9)_ - 1 Y_tilde_Panacea_Biotec,5_ + 1 N_Panacea_Biotec,(5,_9)_ >= -1.0224493125000004e8
c851: 0.13693750000000002 Q_OPV,Panacea_Biotec,(6,_6),1_ + 0.13419875 Q_OPV,Panacea_Biotec,(6,_6),2_ + 0.13009062500000002 Q_OPV,Panacea_Biotec,(6,_6),3_ + 0.9935 Q_Penta,Panacea_Biotec,(6,_6),1_ + 0.97363 Q_Penta,Panacea_Biotec,(6,_6),2_ + 0.943825 Q_Penta,Panacea_Biotec,(6,_6),3_ - 1 N_Panacea_Biotec,(6,_6)_ >= 0
c852: -2.0448986250000015e7 W_Panacea_Biotec,(6,_6)_ - 1 Y_tilde_Panacea_Biotec,6_ + 1 N_Panacea_Biotec,(6,_6)_ >= -2.0448986250000015e7
c853: 0.13693750000000002 Q_OPV,Panacea_Biotec,(6,_7),1_ + 0.13419875 Q_OPV,Panacea_Biotec,(6,_7),2_ + 0.13009062500000002 Q_OPV,Panacea_Biotec,(6,_7),3_ + 0.9935 Q_Penta,Panacea_Biotec,(6,_7),1_ + 0.97363 Q_Penta,Panacea_Biotec,(6,_7),2_ + 0.943825 Q_Penta,Panacea_Biotec,(6,_7),3_ - 1 N_Panacea_Biotec,(6,_7)_ >= 0
c854: -4.089797250000003e7 W_Panacea_Biotec,(6,_7)_ - 1 Y_tilde_Panacea_Biotec,6_ + 1 N_Panacea_Biotec,(6,_7)_ >= -4.089797250000003e7
c855: 0.13693750000000002 Q_OPV,Panacea_Biotec,(6,_8),1_ + 0.13419875 Q_OPV,Panacea_Biotec,(6,_8),2_ + 0.13009062500000002 Q_OPV,Panacea_Biotec,(6,_8),3_ + 0.9935 Q_Penta,Panacea_Biotec,(6,_8),1_ + 0.97363 Q_Penta,Panacea_Biotec,(6,_8),2_ + 0.943825 Q_Penta,Panacea_Biotec,(6,_8),3_ - 1 N_Panacea_Biotec,(6,_8)_ >= 0
c856: -6.1346958750000045e7 W_Panacea_Biotec,(6,_8)_ - 1 Y_tilde_Panacea_Biotec,6_ + 1 N_Panacea_Biotec,(6,_8)_ >= -6.1346958750000045e7
c857: 0.13693750000000002 Q_OPV,Panacea_Biotec,(6,_9),1_ + 0.13419875 Q_OPV,Panacea_Biotec,(6,_9),2_ + 0.13009062500000002 Q_OPV,Panacea_Biotec,(6,_9),3_ + 0.9935 Q_Penta,Panacea_Biotec,(6,_9),1_ + 0.97363 Q_Penta,Panacea_Biotec,(6,_9),2_ + 0.943825 Q_Penta,Panacea_Biotec,(6,_9),3_ - 1 N_Panacea_Biotec,(6,_9)_ >= 0
c858: -8.179594500000004e7 W_Panacea_Biotec,(6,_9)_ - 1 Y_tilde_Panacea_Biotec,6_ + 1 N_Panacea_Biotec,(6,_9)_ >= -8.179594500000004e7
c859: 0.13693750000000002 Q_OPV,Panacea_Biotec,(6,_10),1_ + 0.13419875 Q_OPV,Panacea_Biotec,(6,_10),2_ + 0.13009062500000002 Q_OPV,Panacea_Biotec,(6,_10),3_ + 0.9935 Q_Penta,Panacea_Biotec,(6,_10),1_ + 0.97363 Q_Penta,Panacea_Biotec,(6,_10),2_ + 0.943825 Q_Penta,Panacea_Biotec,(6,_10),3_ - 1 N_Panacea_Biotec,(6,_10)_ >= 0
c860: -1.0224493125000004e8 W_Panacea_Biotec,(6,_10)_ - 1 Y_tilde_Panacea_Biotec,6_ + 1 N_Panacea_Biotec,(6,_10)_ >= -1.0224493125000004e8
c861: 0.13693750000000002 Q_OPV,Panacea_Biotec,(7,_7),1_ + 0.13419875 Q_OPV,Panacea_Biotec,(7,_7),2_ + 0.13009062500000002 Q_OPV,Panacea_Biotec,(7,_7),3_ + 0.99825 Q_Penta,Panacea_Biotec,(7,_7),1_ + 0.978285 Q_Penta,Panacea_Biotec,(7,_7),2_ + 0.9483374999999999 Q_Penta,Panacea_Biotec,(7,_7),3_ - 1 N_Panacea_Biotec,(7,_7)_ >= 0
c862: -2.0448986250000015e7 W_Panacea_Biotec,(7,_7)_ - 1 Y_tilde_Panacea_Biotec,7_ + 1 N_Panacea_Biotec,(7,_7)_ >= -2.0448986250000015e7
c863: 0.13693750000000002 Q_OPV,Panacea_Biotec,(7,_8),1_ + 0.13419875 Q_OPV,Panacea_Biotec,(7,_8),2_ + 0.13009062500000002 Q_OPV,Panacea_Biotec,(7,_8),3_ + 0.99825 Q_Penta,Panacea_Biotec,(7,_8),1_ + 0.978285 Q_Penta,Panacea_Biotec,(7,_8),2_ + 0.9483374999999999 Q_Penta,Panacea_Biotec,(7,_8),3_ - 1 N_Panacea_Biotec,(7,_8)_ >= 0
c864: -4.089797250000003e7 W_Panacea_Biotec,(7,_8)_ - 1 Y_tilde_Panacea_Biotec,7_ + 1 N_Panacea_Biotec,(7,_8)_ >= -4.089797250000003e7
c865: 0.13693750000000002 Q_OPV,Panacea_Biotec,(7,_9),1_ + 0.13419875 Q_OPV,Panacea_Biotec,(7,_9),2_ + 0.13009062500000002 Q_OPV,Panacea_Biotec,(7,_9),3_ + 0.99825 Q_Penta,Panacea_Biotec,(7,_9),1_ + 0.978285 Q_Penta,Panacea_Biotec,(7,_9),2_ + 0.9483374999999999 Q_Penta,Panacea_Biotec,(7,_9),3_ - 1 N_Panacea_Biotec,(7,_9)_ >= 0
c866: -6.1346958750000045e7 W_Panacea_Biotec,(7,_9)_ - 1 Y_tilde_Panacea_Biotec,7_ + 1 N_Panacea_Biotec,(7,_9)_ >= -6.1346958750000045e7
c867: 0.13693750000000002 Q_OPV,Panacea_Biotec,(7,_10),1_ + 0.13419875 Q_OPV,Panacea_Biotec,(7,_10),2_ + 0.13009062500000002 Q_OPV,Panacea_Biotec,(7,_10),3_ + 0.99825 Q_Penta,Panacea_Biotec,(7,_10),1_ + 0.978285 Q_Penta,Panacea_Biotec,(7,_10),2_ + 0.9483374999999999 Q_Penta,Panacea_Biotec,(7,_10),3_ - 1 N_Panacea_Biotec,(7,_10)_ >= 0
c868: -8.179594500000004e7 W_Panacea_Biotec,(7,_10)_ - 1 Y_tilde_Panacea_Biotec,7_ + 1 N_Panacea_Biotec,(7,_10)_ >= -8.179594500000004e7
c869: 0.13693750000000002 Q_OPV,Panacea_Biotec,(8,_8),1_ + 0.13419875 Q_OPV,Panacea_Biotec,(8,_8),2_ + 0.13009062500000002 Q_OPV,Panacea_Biotec,(8,_8),3_ + 0.996875 Q_Penta,Panacea_Biotec,(8,_8),1_ + 0.9769374999999999 Q_Penta,Panacea_Biotec,(8,_8),2_ + 0.9470312499999999 Q_Penta,Panacea_Biotec,(8,_8),3_ - 1 N_Panacea_Biotec,(8,_8)_ >= 0
c870: -2.0448986250000015e7 W_Panacea_Biotec,(8,_8)_ - 1 Y_tilde_Panacea_Biotec,8_ + 1 N_Panacea_Biotec,(8,_8)_ >= -2.0448986250000015e7
c871: 0.13693750000000002 Q_OPV,Panacea_Biotec,(8,_9),1_ + 0.13419875 Q_OPV,Panacea_Biotec,(8,_9),2_ + 0.13009062500000002 Q_OPV,Panacea_Biotec,(8,_9),3_ + 0.996875 Q_Penta,Panacea_Biotec,(8,_9),1_ + 0.9769374999999999 Q_Penta,Panacea_Biotec,(8,_9),2_ + 0.9470312499999999 Q_Penta,Panacea_Biotec,(8,_9),3_ - 1 N_Panacea_Biotec,(8,_9)_ >= 0
c872: -4.089797250000003e7 W_Panacea_Biotec,(8,_9)_ - 1 Y_tilde_Panacea_Biotec,8_ + 1 N_Panacea_Biotec,(8,_9)_ >= -4.089797250000003e7
c873: 0.13693750000000002 Q_OPV,Panacea_Biotec,(8,_10),1_ + 0.13419875 Q_OPV,Panacea_Biotec,(8,_10),2_ + 0.13009062500000002 Q_OPV,Panacea_Biotec,(8,_10),3_ + 0.996875 Q_Penta,Panacea_Biotec,(8,_10),1_ + 0.9769374999999999 Q_Penta,Panacea_Biotec,(8,_10),2_ + 0.9470312499999999 Q_Penta,Panacea_Biotec,(8,_10),3_ - 1 N_Panacea_Biotec,(8,_10)_ >= 0
c874: -6.1346958750000045e7 W_Panacea_Biotec,(8,_10)_ - 1 Y_tilde_Panacea_Biotec,8_ + 1 N_Panacea_Biotec,(8,_10)_ >= -6.1346958750000045e7
c875: 0.13693750000000002 Q_OPV,Panacea_Biotec,(9,_9),1_ + 0.13419875 Q_OPV,Panacea_Biotec,(9,_9),2_ + 0.13009062500000002 Q_OPV,Panacea_Biotec,(9,_9),3_ + 0.9975625000000001 Q_Penta,Panacea_Biotec,(9,_9),1_ + 0.9776112500000002 Q_Penta,Panacea_Biotec,(9,_9),2_ + 0.9476843750000001 Q_Penta,Panacea_Biotec,(9,_9),3_ - 1 N_Panacea_Biotec,(9,_9)_ >= 0
c876: -2.0448986250000015e7 W_Panacea_Biotec,(9,_9)_ - 1 Y_tilde_Panacea_Biotec,9_ + 1 N_Panacea_Biotec,(9,_9)_ >= -2.0448986250000015e7
c877: 0.13693750000000002 Q_OPV,Panacea_Biotec,(9,_10),1_ + 0.13419875 Q_OPV,Panacea_Biotec,(9,_10),2_ + 0.13009062500000002 Q_OPV,Panacea_Biotec,(9,_10),3_ + 0.9975625000000001 Q_Penta,Panacea_Biotec,(9,_10),1_ + 0.9776112500000002 Q_Penta,Panacea_Biotec,(9,_10),2_ + 0.9476843750000001 Q_Penta,Panacea_Biotec,(9,_10),3_ - 1 N_Panacea_Biotec,(9,_10)_ >= 0
c878: -4.089797250000003e7 W_Panacea_Biotec,(9,_10)_ - 1 Y_tilde_Panacea_Biotec,9_ + 1 N_Panacea_Biotec,(9,_10)_ >= -4.089797250000003e7
c879: 0.13693750000000002 Q_OPV,Panacea_Biotec,(10,_10),1_ + 0.13419875 Q_OPV,Panacea_Biotec,(10,_10),2_ + 0.13009062500000002 Q_OPV,Panacea_Biotec,(10,_10),3_ + 0.99721875 Q_Penta,Panacea_Biotec,(10,_10),1_ + 0.977274375 Q_Penta,Panacea_Biotec,(10,_10),2_ + 0.9473578125 Q_Penta,Panacea_Biotec,(10,_10),3_ - 1 N_Panacea_Biotec,(10,_10)_ >= 0
c880: -2.0448986250000015e7 W_Panacea_Biotec,(10,_10)_ - 1 Y_tilde_Panacea_Biotec,10_ + 1 N_Panacea_Biotec,(10,_10)_ >= -2.0448986250000015e7
c881: 0.321 Q_M,PT_Bio,(1,_1),1_ + 0.31458 Q_M,PT_Bio,(1,_1),2_ + 0.30495 Q_M,PT_Bio,(1,_1),3_ + 0.07700000000000001 Q_TT,PT_Bio,(1,_1),1_ + 0.07546000000000001 Q_TT,PT_Bio,(1,_1),2_ + 0.07315 Q_TT,PT_Bio,(1,_1),3_ + 0.13305 Q_OPV,PT_Bio,(1,_1),1_ + 0.130389 Q_OPV,PT_Bio,(1,_1),2_ + 0.1263975 Q_OPV,PT_Bio,(1,_1),3_ + 0.16999999999999998 Q_DT,PT_Bio,(1,_1),1_ + 0.16659999999999997 Q_DT,PT_Bio,(1,_1),2_ + 0.16149999999999998 Q_DT,PT_Bio,(1,_1),3_ + 0.10092499999999999 Q_Td,PT_Bio,(1,_1),1_ + 0.09890649999999998 Q_Td,PT_Bio,(1,_1),2_ + 0.09587874999999998 Q_Td,PT_Bio,(1,_1),3_ + 0.9686999999999999 Q_Penta,PT_Bio,(1,_1),1_ + 0.9493259999999999 Q_Penta,PT_Bio,(1,_1),2_ + 0.9202649999999999 Q_Penta,PT_Bio,(1,_1),3_ - 1 N_PT_Bio,(1,_1)_ >= 0
c882: -1.5975940699869809e6 W_PT_Bio,(1,_1)_ - 1 Y_tilde_PT_Bio,1_ + 1 N_PT_Bio,(1,_1)_ >= -1.5975940699869809e6
c883: 0.321 Q_M,PT_Bio,(1,_2),1_ + 0.31458 Q_M,PT_Bio,(1,_2),2_ + 0.30495 Q_M,PT_Bio,(1,_2),3_ + 0.07700000000000001 Q_TT,PT_Bio,(1,_2),1_ + 0.07546000000000001 Q_TT,PT_Bio,(1,_2),2_ + 0.07315 Q_TT,PT_Bio,(1,_2),3_ + 0.13305 Q_OPV,PT_Bio,(1,_2),1_ + 0.130389 Q_OPV,PT_Bio,(1,_2),2_ + 0.1263975 Q_OPV,PT_Bio,(1,_2),3_ + 0.16999999999999998 Q_DT,PT_Bio,(1,_2),1_ + 0.16659999999999997 Q_DT,PT_Bio,(1,_2),2_ + 0.16149999999999998 Q_DT,PT_Bio,(1,_2),3_ + 0.10092499999999999 Q_Td,PT_Bio,(1,_2),1_ + 0.09890649999999998 Q_Td,PT_Bio,(1,_2),2_ + 0.09587874999999998 Q_Td,PT_Bio,(1,_2),3_ + 0.9686999999999999 Q_Penta,PT_Bio,(1,_2),1_ + 0.9493259999999999 Q_Penta,PT_Bio,(1,_2),2_ + 0.9202649999999999 Q_Penta,PT_Bio,(1,_2),3_ - 1 N_PT_Bio,(1,_2)_ >= 0
c884: -3.195188139973961e6 W_PT_Bio,(1,_2)_ - 1 Y_tilde_PT_Bio,1_ + 1 N_PT_Bio,(1,_2)_ >= -3.195188139973961e6
c885: 0.321 Q_M,PT_Bio,(1,_3),1_ + 0.31458 Q_M,PT_Bio,(1,_3),2_ + 0.30495 Q_M,PT_Bio,(1,_3),3_ + 0.07700000000000001 Q_TT,PT_Bio,(1,_3),1_ + 0.07546000000000001 Q_TT,PT_Bio,(1,_3),2_ + 0.07315 Q_TT,PT_Bio,(1,_3),3_ + 0.13305 Q_OPV,PT_Bio,(1,_3),1_ + 0.130389 Q_OPV,PT_Bio,(1,_3),2_ + 0.1263975 Q_OPV,PT_Bio,(1,_3),3_ + 0.16999999999999998 Q_DT,PT_Bio,(1,_3),1_ + 0.16659999999999997 Q_DT,PT_Bio,(1,_3),2_ + 0.16149999999999998 Q_DT,PT_Bio,(1,_3),3_ + 0.10092499999999999 Q_Td,PT_Bio,(1,_3),1_ + 0.09890649999999998 Q_Td,PT_Bio,(1,_3),2_ + 0.09587874999999998 Q_Td,PT_Bio,(1,_3),3_ + 0.9686999999999999 Q_Penta,PT_Bio,(1,_3),1_ + 0.9493259999999999 Q_Penta,PT_Bio,(1,_3),2_ + 0.9202649999999999 Q_Penta,PT_Bio,(1,_3),3_ - 1 N_PT_Bio,(1,_3)_ >= 0
c886: -4.792782209960941e6 W_PT_Bio,(1,_3)_ - 1 Y_tilde_PT_Bio,1_ + 1 N_PT_Bio,(1,_3)_ >= -4.792782209960941e6
c887: 0.321 Q_M,PT_Bio,(1,_4),1_ + 0.31458 Q_M,PT_Bio,(1,_4),2_ + 0.30495 Q_M,PT_Bio,(1,_4),3_ + 0.07700000000000001 Q_TT,PT_Bio,(1,_4),1_ + 0.07546000000000001 Q_TT,PT_Bio,(1,_4),2_ + 0.07315 Q_TT,PT_Bio,(1,_4),3_ + 0.13305 Q_OPV,PT_Bio,(1,_4),1_ + 0.130389 Q_OPV,PT_Bio,(1,_4),2_ + 0.1263975 Q_OPV,PT_Bio,(1,_4),3_ + 0.16999999999999998 Q_DT,PT_Bio,(1,_4),1_ + 0.16659999999999997 Q_DT,PT_Bio,(1,_4),2_ + 0.16149999999999998 Q_DT,PT_Bio,(1,_4),3_ + 0.10092499999999999 Q_Td,PT_Bio,(1,_4),1_ + 0.09890649999999998 Q_Td,PT_Bio,(1,_4),2_ + 0.09587874999999998 Q_Td,PT_Bio,(1,_4),3_ + 0.9686999999999999 Q_Penta,PT_Bio,(1,_4),1_ + 0.9493259999999999 Q_Penta,PT_Bio,(1,_4),2_ + 0.9202649999999999 Q_Penta,PT_Bio,(1,_4),3_ - 1 N_PT_Bio,(1,_4)_ >= 0
c888: -6.3903762799479235e6 W_PT_Bio,(1,_4)_ - 1 Y_tilde_PT_Bio,1_ + 1 N_PT_Bio,(1,_4)_ >= -6.3903762799479235e6
c889: 0.321 Q_M,PT_Bio,(1,_5),1_ + 0.31458 Q_M,PT_Bio,(1,_5),2_ + 0.30495 Q_M,PT_Bio,(1,_5),3_ + 0.07700000000000001 Q_TT,PT_Bio,(1,_5),1_ + 0.07546000000000001 Q_TT,PT_Bio,(1,_5),2_ + 0.07315 Q_TT,PT_Bio,(1,_5),3_ + 0.13305 Q_OPV,PT_Bio,(1,_5),1_ + 0.130389 Q_OPV,PT_Bio,(1,_5),2_ + 0.1263975 Q_OPV,PT_Bio,(1,_5),3_ + 0.16999999999999998 Q_DT,PT_Bio,(1,_5),1_ + 0.16659999999999997 Q_DT,PT_Bio,(1,_5),2_ + 0.16149999999999998 Q_DT,PT_Bio,(1,_5),3_ + 0.10092499999999999 Q_Td,PT_Bio,(1,_5),1_ + 0.09890649999999998 Q_Td,PT_Bio,(1,_5),2_ + 0.09587874999999998 Q_Td,PT_Bio,(1,_5),3_ + 0.9686999999999999 Q_Penta,PT_Bio,(1,_5),1_ + 0.9493259999999999 Q_Penta,PT_Bio,(1,_5),2_ + 0.9202649999999999 Q_Penta,PT_Bio,(1,_5),3_ - 1 N_PT_Bio,(1,_5)_ >= 0
c890: -7.987970349934906e6 W_PT_Bio,(1,_5)_ - 1 Y_tilde_PT_Bio,1_ + 1 N_PT_Bio,(1,_5)_ >= -7.987970349934906e6
c891: 0.34525 Q_M,PT_Bio,(2,_2),1_ + 0.338345 Q_M,PT_Bio,(2,_2),2_ + 0.3279875 Q_M,PT_Bio,(2,_2),3_ + 0.07762500000000001 Q_TT,PT_Bio,(2,_2),1_ + 0.07607250000000002 Q_TT,PT_Bio,(2,_2),2_ + 0.07374375000000001 Q_TT,PT_Bio,(2,_2),3_ + 0.13693750000000002 Q_OPV,PT_Bio,(2,_2),1_ + 0.13419875 Q_OPV,PT_Bio,(2,_2),2_ + 0.13009062500000002 Q_OPV,PT_Bio,(2,_2),3_ + 0.16999999999999998 Q_DT,PT_Bio,(2,_2),1_ + 0.16659999999999997 Q_DT,PT_Bio,(2,_2),2_ + 0.16149999999999998 Q_DT,PT_Bio,(2,_2),3_ + 0.10217499999999999 Q_Td,PT_Bio,(2,_2),1_ + 0.10013149999999998 Q_Td,PT_Bio,(2,_2),2_ + 0.09706624999999998 Q_Td,PT_Bio,(2,_2),3_ + 0.9686999999999999 Q_Penta,PT_Bio,(2,_2),1_ + 0.9493259999999999 Q_Penta,PT_Bio,(2,_2),2_ + 0.9202649999999999 Q_Penta,PT_Bio,(2,_2),3_ - 1 N_PT_Bio,(2,_2)_ >= 0
c892: -1.5975940699869809e6 W_PT_Bio,(2,_2)_ - 1 Y_tilde_PT_Bio,2_ + 1 N_PT_Bio,(2,_2)_ >= -1.5975940699869809e6
c893: 0.34525 Q_M,PT_Bio,(2,_3),1_ + 0.338345 Q_M,PT_Bio,(2,_3),2_ + 0.3279875 Q_M,PT_Bio,(2,_3),3_ + 0.07762500000000001 Q_TT,PT_Bio,(2,_3),1_ + 0.07607250000000002 Q_TT,PT_Bio,(2,_3),2_ + 0.07374375000000001 Q_TT,PT_Bio,(2,_3),3_ + 0.13693750000000002 Q_OPV,PT_Bio,(2,_3),1_ + 0.13419875 Q_OPV,PT_Bio,(2,_3),2_ + 0.13009062500000002 Q_OPV,PT_Bio,(2,_3),3_ + 0.16999999999999998 Q_DT,PT_Bio,(2,_3),1_ + 0.16659999999999997 Q_DT,PT_Bio,(2,_3),2_ + 0.16149999999999998 Q_DT,PT_Bio,(2,_3),3_ + 0.10217499999999999 Q_Td,PT_Bio,(2,_3),1_ + 0.10013149999999998 Q_Td,PT_Bio,(2,_3),2_ + 0.09706624999999998 Q_Td,PT_Bio,(2,_3),3_ + 0.9686999999999999 Q_Penta,PT_Bio,(2,_3),1_ + 0.9493259999999999 Q_Penta,PT_Bio,(2,_3),2_ + 0.9202649999999999 Q_Penta,PT_Bio,(2,_3),3_ - 1 N_PT_Bio,(2,_3)_ >= 0
c894: -3.195188139973961e6 W_PT_Bio,(2,_3)_ - 1 Y_tilde_PT_Bio,2_ + 1 N_PT_Bio,(2,_3)_ >= -3.195188139973961e6
c895: 0.34525 Q_M,PT_Bio,(2,_4),1_ + 0.338345 Q_M,PT_Bio,(2,_4),2_ + 0.3279875 Q_M,PT_Bio,(2,_4),3_ + 0.07762500000000001 Q_TT,PT_Bio,(2,_4),1_ + 0.07607250000000002 Q_TT,PT_Bio,(2,_4),2_ + 0.07374375000000001 Q_TT,PT_Bio,(2,_4),3_ + 0.13693750000000002 Q_OPV,PT_Bio,(2,_4),1_ + 0.13419875 Q_OPV,PT_Bio,(2,_4),2_ + 0.13009062500000002 Q_OPV,PT_Bio,(2,_4),3_ + 0.16999999999999998 Q_DT,PT_Bio,(2,_4),1_ + 0.16659999999999997 Q_DT,PT_Bio,(2,_4),2_ + 0.16149999999999998 Q_DT,PT_Bio,(2,_4),3_ + 0.10217499999999999 Q_Td,PT_Bio,(2,_4),1_ + 0.10013149999999998 Q_Td,PT_Bio,(2,_4),2_ + 0.09706624999999998 Q_Td,PT_Bio,(2,_4),3_ + 0.9686999999999999 Q_Penta,PT_Bio,(2,_4),1_ + 0.9493259999999999 Q_Penta,PT_Bio,(2,_4),2_ + 0.9202649999999999 Q_Penta,PT_Bio,(2,_4),3_ - 1 N_PT_Bio,(2,_4)_ >= 0
c896: -4.792782209960941e6 W_PT_Bio,(2,_4)_ - 1 Y_tilde_PT_Bio,2_ + 1 N_PT_Bio,(2,_4)_ >= -4.792782209960941e6
c897: 0.34525 Q_M,PT_Bio,(2,_5),1_ + 0.338345 Q_M,PT_Bio,(2,_5),2_ + 0.3279875 Q_M,PT_Bio,(2,_5),3_ + 0.07762500000000001 Q_TT,PT_Bio,(2,_5),1_ + 0.07607250000000002 Q_TT,PT_Bio,(2,_5),2_ + 0.07374375000000001 Q_TT,PT_Bio,(2,_5),3_ + 0.13693750000000002 Q_OPV,PT_Bio,(2,_5),1_ + 0.13419875 Q_OPV,PT_Bio,(2,_5),2_ + 0.13009062500000002 Q_OPV,PT_Bio,(2,_5),3_ + 0.16999999999999998 Q_DT,PT_Bio,(2,_5),1_ + 0.16659999999999997 Q_DT,PT_Bio,(2,_5),2_ + 0.16149999999999998 Q_DT,PT_Bio,(2,_5),3_ + 0.10217499999999999 Q_Td,PT_Bio,(2,_5),1_ + 0.10013149999999998 Q_Td,PT_Bio,(2,_5),2_ + 0.09706624999999998 Q_Td,PT_Bio,(2,_5),3_ + 0.9686999999999999 Q_Penta,PT_Bio,(2,_5),1_ + 0.9493259999999999 Q_Penta,PT_Bio,(2,_5),2_ + 0.9202649999999999 Q_Penta,PT_Bio,(2,_5),3_ - 1 N_PT_Bio,(2,_5)_ >= 0
c898: -6.3903762799479235e6 W_PT_Bio,(2,_5)_ - 1 Y_tilde_PT_Bio,2_ + 1 N_PT_Bio,(2,_5)_ >= -6.3903762799479235e6
c899: 0.34525 Q_M,PT_Bio,(2,_6),1_ + 0.338345 Q_M,PT_Bio,(2,_6),2_ + 0.3279875 Q_M,PT_Bio,(2,_6),3_ + 0.07762500000000001 Q_TT,PT_Bio,(2,_6),1_ + 0.07607250000000002 Q_TT,PT_Bio,(2,_6),2_ + 0.07374375000000001 Q_TT,PT_Bio,(2,_6),3_ + 0.13693750000000002 Q_OPV,PT_Bio,(2,_6),1_ + 0.13419875 Q_OPV,PT_Bio,(2,_6),2_ + 0.13009062500000002 Q_OPV,PT_Bio,(2,_6),3_ + 0.16999999999999998 Q_DT,PT_Bio,(2,_6),1_ + 0.16659999999999997 Q_DT,PT_Bio,(2,_6),2_ + 0.16149999999999998 Q_DT,PT_Bio,(2,_6),3_ + 0.10217499999999999 Q_Td,PT_Bio,(2,_6),1_ + 0.10013149999999998 Q_Td,PT_Bio,(2,_6),2_ + 0.09706624999999998 Q_Td,PT_Bio,(2,_6),3_ + 0.9686999999999999 Q_Penta,PT_Bio,(2,_6),1_ + 0.9493259999999999 Q_Penta,PT_Bio,(2,_6),2_ + 0.9202649999999999 Q_Penta,PT_Bio,(2,_6),3_ - 1 N_PT_Bio,(2,_6)_ >= 0
c900: -7.987970349934906e6 W_PT_Bio,(2,_6)_ - 1 Y_tilde_PT_Bio,2_ + 1 N_PT_Bio,(2,_6)_ >= -7.987970349934906e6
c901: 0.355 Q_M,PT_Bio,(3,_3),1_ + 0.3479 Q_M,PT_Bio,(3,_3),2_ + 0.33725 Q_M,PT_Bio,(3,_3),3_ + 0.07743749999999999 Q_TT,PT_Bio,(3,_3),1_ + 0.07588874999999999 Q_TT,PT_Bio,(3,_3),2_ + 0.073565625 Q_TT,PT_Bio,(3,_3),3_ + 0.13693750000000002 Q_OPV,PT_Bio,(3,_3),1_ + 0.13419875 Q_OPV,PT_Bio,(3,_3),2_ + 0.13009062500000002 Q_OPV,PT_Bio,(3,_3),3_ + 0.16999999999999998 Q_DT,PT_Bio,(3,_3),1_ + 0.16659999999999997 Q_DT,PT_Bio,(3,_3),2_ + 0.16149999999999998 Q_DT,PT_Bio,(3,_3),3_ + 0.11737500000000001 Q_Td,PT_Bio,(3,_3),1_ + 0.1150275 Q_Td,PT_Bio,(3,_3),2_ + 0.11150625 Q_Td,PT_Bio,(3,_3),3_ + 0.9880000000000001 Q_Penta,PT_Bio,(3,_3),1_ + 0.9682400000000001 Q_Penta,PT_Bio,(3,_3),2_ + 0.9386000000000001 Q_Penta,PT_Bio,(3,_3),3_ - 1 N_PT_Bio,(3,_3)_ >= 0
c902: -1.5975940699869809e6 W_PT_Bio,(3,_3)_ - 1 Y_tilde_PT_Bio,3_ + 1 N_PT_Bio,(3,_3)_ >= -1.5975940699869809e6
c903: 0.355 Q_M,PT_Bio,(3,_4),1_ + 0.3479 Q_M,PT_Bio,(3,_4),2_ + 0.33725 Q_M,PT_Bio,(3,_4),3_ + 0.07743749999999999 Q_TT,PT_Bio,(3,_4),1_ + 0.07588874999999999 Q_TT,PT_Bio,(3,_4),2_ + 0.073565625 Q_TT,PT_Bio,(3,_4),3_ + 0.13693750000000002 Q_OPV,PT_Bio,(3,_4),1_ + 0.13419875 Q_OPV,PT_Bio,(3,_4),2_ + 0.13009062500000002 Q_OPV,PT_Bio,(3,_4),3_ + 0.16999999999999998 Q_DT,PT_Bio,(3,_4),1_ + 0.16659999999999997 Q_DT,PT_Bio,(3,_4),2_ + 0.16149999999999998 Q_DT,PT_Bio,(3,_4),3_ + 0.11737500000000001 Q_Td,PT_Bio,(3,_4),1_ + 0.1150275 Q_Td,PT_Bio,(3,_4),2_ + 0.11150625 Q_Td,PT_Bio,(3,_4),3_ + 0.9880000000000001 Q_Penta,PT_Bio,(3,_4),1_ + 0.9682400000000001 Q_Penta,PT_Bio,(3,_4),2_ + 0.9386000000000001 Q_Penta,PT_Bio,(3,_4),3_ - 1 N_PT_Bio,(3,_4)_ >= 0
c904: -3.195188139973961e6 W_PT_Bio,(3,_4)_ - 1 Y_tilde_PT_Bio,3_ + 1 N_PT_Bio,(3,_4)_ >= -3.195188139973961e6
c905: 0.355 Q_M,PT_Bio,(3,_5),1_ + 0.3479 Q_M,PT_Bio,(3,_5),2_ + 0.33725 Q_M,PT_Bio,(3,_5),3_ + 0.07743749999999999 Q_TT,PT_Bio,(3,_5),1_ + 0.07588874999999999 Q_TT,PT_Bio,(3,_5),2_ + 0.073565625 Q_TT,PT_Bio,(3,_5),3_ + 0.13693750000000002 Q_OPV,PT_Bio,(3,_5),1_ + 0.13419875 Q_OPV,PT_Bio,(3,_5),2_ + 0.13009062500000002 Q_OPV,PT_Bio,(3,_5),3_ + 0.16999999999999998 Q_DT,PT_Bio,(3,_5),1_ + 0.16659999999999997 Q_DT,PT_Bio,(3,_5),2_ + 0.16149999999999998 Q_DT,PT_Bio,(3,_5),3_ + 0.11737500000000001 Q_Td,PT_Bio,(3,_5),1_ + 0.1150275 Q_Td,PT_Bio,(3,_5),2_ + 0.11150625 Q_Td,PT_Bio,(3,_5),3_ + 0.9880000000000001 Q_Penta,PT_Bio,(3,_5),1_ + 0.9682400000000001 Q_Penta,PT_Bio,(3,_5),2_ + 0.9386000000000001 Q_Penta,PT_Bio,(3,_5),3_ - 1 N_PT_Bio,(3,_5)_ >= 0
c906: -4.792782209960941e6 W_PT_Bio,(3,_5)_ - 1 Y_tilde_PT_Bio,3_ + 1 N_PT_Bio,(3,_5)_ >= -4.792782209960941e6
c907: 0.355 Q_M,PT_Bio,(3,_6),1_ + 0.3479 Q_M,PT_Bio,(3,_6),2_ + 0.33725 Q_M,PT_Bio,(3,_6),3_ + 0.07743749999999999 Q_TT,PT_Bio,(3,_6),1_ + 0.07588874999999999 Q_TT,PT_Bio,(3,_6),2_ + 0.073565625 Q_TT,PT_Bio,(3,_6),3_ + 0.13693750000000002 Q_OPV,PT_Bio,(3,_6),1_ + 0.13419875 Q_OPV,PT_Bio,(3,_6),2_ + 0.13009062500000002 Q_OPV,PT_Bio,(3,_6),3_ + 0.16999999999999998 Q_DT,PT_Bio,(3,_6),1_ + 0.16659999999999997 Q_DT,PT_Bio,(3,_6),2_ + 0.16149999999999998 Q_DT,PT_Bio,(3,_6),3_ + 0.11737500000000001 Q_Td,PT_Bio,(3,_6),1_ + 0.1150275 Q_Td,PT_Bio,(3,_6),2_ + 0.11150625 Q_Td,PT_Bio,(3,_6),3_ + 0.9880000000000001 Q_Penta,PT_Bio,(3,_6),1_ + 0.9682400000000001 Q_Penta,PT_Bio,(3,_6),2_ + 0.9386000000000001 Q_Penta,PT_Bio,(3,_6),3_ - 1 N_PT_Bio,(3,_6)_ >= 0
c908: -6.3903762799479235e6 W_PT_Bio,(3,_6)_ - 1 Y_tilde_PT_Bio,3_ + 1 N_PT_Bio,(3,_6)_ >= -6.3903762799479235e6
c909: 0.355 Q_M,PT_Bio,(3,_7),1_ + 0.3479 Q_M,PT_Bio,(3,_7),2_ + 0.33725 Q_M,PT_Bio,(3,_7),3_ + 0.07743749999999999 Q_TT,PT_Bio,(3,_7),1_ + 0.07588874999999999 Q_TT,PT_Bio,(3,_7),2_ + 0.073565625 Q_TT,PT_Bio,(3,_7),3_ + 0.13693750000000002 Q_OPV,PT_Bio,(3,_7),1_ + 0.13419875 Q_OPV,PT_Bio,(3,_7),2_ + 0.13009062500000002 Q_OPV,PT_Bio,(3,_7),3_ + 0.16999999999999998 Q_DT,PT_Bio,(3,_7),1_ + 0.16659999999999997 Q_DT,PT_Bio,(3,_7),2_ + 0.16149999999999998 Q_DT,PT_Bio,(3,_7),3_ + 0.11737500000000001 Q_Td,PT_Bio,(3,_7),1_ + 0.1150275 Q_Td,PT_Bio,(3,_7),2_ + 0.11150625 Q_Td,PT_Bio,(3,_7),3_ + 0.9880000000000001 Q_Penta,PT_Bio,(3,_7),1_ + 0.9682400000000001 Q_Penta,PT_Bio,(3,_7),2_ + 0.9386000000000001 Q_Penta,PT_Bio,(3,_7),3_ - 1 N_PT_Bio,(3,_7)_ >= 0
c910: -7.987970349934906e6 W_PT_Bio,(3,_7)_ - 1 Y_tilde_PT_Bio,3_ + 1 N_PT_Bio,(3,_7)_ >= -7.987970349934906e6
c911: 0.350125 Q_M,PT_Bio,(4,_4),1_ + 0.3431225 Q_M,PT_Bio,(4,_4),2_ + 0.33261875 Q_M,PT_Bio,(4,_4),3_ + 0.08521875 Q_TT,PT_Bio,(4,_4),1_ + 0.08351437499999999 Q_TT,PT_Bio,(4,_4),2_ + 0.08095781249999999 Q_TT,PT_Bio,(4,_4),3_ + 0.13693750000000002 Q_OPV,PT_Bio,(4,_4),1_ + 0.13419875 Q_OPV,PT_Bio,(4,_4),2_ + 0.13009062500000002 Q_OPV,PT_Bio,(4,_4),3_ + 0.16999999999999998 Q_DT,PT_Bio,(4,_4),1_ + 0.16659999999999997 Q_DT,PT_Bio,(4,_4),2_ + 0.16149999999999998 Q_DT,PT_Bio,(4,_4),3_ + 0.1257625 Q_Td,PT_Bio,(4,_4),1_ + 0.12324725 Q_Td,PT_Bio,(4,_4),2_ + 0.119474375 Q_Td,PT_Bio,(4,_4),3_ + 0.9880000000000001 Q_Penta,PT_Bio,(4,_4),1_ + 0.9682400000000001 Q_Penta,PT_Bio,(4,_4),2_ + 0.9386000000000001 Q_Penta,PT_Bio,(4,_4),3_ - 1 N_PT_Bio,(4,_4)_ >= 0
c912: -1.5975940699869809e6 W_PT_Bio,(4,_4)_ - 1 Y_tilde_PT_Bio,4_ + 1 N_PT_Bio,(4,_4)_ >= -1.5975940699869809e6
c913: 0.350125 Q_M,PT_Bio,(4,_5),1_ + 0.3431225 Q_M,PT_Bio,(4,_5),2_ + 0.33261875 Q_M,PT_Bio,(4,_5),3_ + 0.08521875 Q_TT,PT_Bio,(4,_5),1_ + 0.08351437499999999 Q_TT,PT_Bio,(4,_5),2_ + 0.08095781249999999 Q_TT,PT_Bio,(4,_5),3_ + 0.13693750000000002 Q_OPV,PT_Bio,(4,_5),1_ + 0.13419875 Q_OPV,PT_Bio,(4,_5),2_ + 0.13009062500000002 Q_OPV,PT_Bio,(4,_5),3_ + 0.16999999999999998 Q_DT,PT_Bio,(4,_5),1_ + 0.16659999999999997 Q_DT,PT_Bio,(4,_5),2_ + 0.16149999999999998 Q_DT,PT_Bio,(4,_5),3_ + 0.1257625 Q_Td,PT_Bio,(4,_5),1_ + 0.12324725 Q_Td,PT_Bio,(4,_5),2_ + 0.119474375 Q_Td,PT_Bio,(4,_5),3_ + 0.9880000000000001 Q_Penta,PT_Bio,(4,_5),1_ + 0.9682400000000001 Q_Penta,PT_Bio,(4,_5),2_ + 0.9386000000000001 Q_Penta,PT_Bio,(4,_5),3_ - 1 N_PT_Bio,(4,_5)_ >= 0
c914: -3.195188139973961e6 W_PT_Bio,(4,_5)_ - 1 Y_tilde_PT_Bio,4_ + 1 N_PT_Bio,(4,_5)_ >= -3.195188139973961e6
c915: 0.350125 Q_M,PT_Bio,(4,_6),1_ + 0.3431225 Q_M,PT_Bio,(4,_6),2_ + 0.33261875 Q_M,PT_Bio,(4,_6),3_ + 0.08521875 Q_TT,PT_Bio,(4,_6),1_ + 0.08351437499999999 Q_TT,PT_Bio,(4,_6),2_ + 0.08095781249999999 Q_TT,PT_Bio,(4,_6),3_ + 0.13693750000000002 Q_OPV,PT_Bio,(4,_6),1_ + 0.13419875 Q_OPV,PT_Bio,(4,_6),2_ + 0.13009062500000002 Q_OPV,PT_Bio,(4,_6),3_ + 0.16999999999999998 Q_DT,PT_Bio,(4,_6),1_ + 0.16659999999999997 Q_DT,PT_Bio,(4,_6),2_ + 0.16149999999999998 Q_DT,PT_Bio,(4,_6),3_ + 0.1257625 Q_Td,PT_Bio,(4,_6),1_ + 0.12324725 Q_Td,PT_Bio,(4,_6),2_ + 0.119474375 Q_Td,PT_Bio,(4,_6),3_ + 0.9880000000000001 Q_Penta,PT_Bio,(4,_6),1_ + 0.9682400000000001 Q_Penta,PT_Bio,(4,_6),2_ + 0.9386000000000001 Q_Penta,PT_Bio,(4,_6),3_ - 1 N_PT_Bio,(4,_6)_ >= 0
c916: -4.792782209960941e6 W_PT_Bio,(4,_6)_ - 1 Y_tilde_PT_Bio,4_ + 1 N_PT_Bio,(4,_6)_ >= -4.792782209960941e6
c917: 0.350125 Q_M,PT_Bio,(4,_7),1_ + 0.3431225 Q_M,PT_Bio,(4,_7),2_ + 0.33261875 Q_M,PT_Bio,(4,_7),3_ + 0.08521875 Q_TT,PT_Bio,(4,_7),1_ + 0.08351437499999999 Q_TT,PT_Bio,(4,_7),2_ + 0.08095781249999999 Q_TT,PT_Bio,(4,_7),3_ + 0.13693750000000002 Q_OPV,PT_Bio,(4,_7),1_ + 0.13419875 Q_OPV,PT_Bio,(4,_7),2_ + 0.13009062500000002 Q_OPV,PT_Bio,(4,_7),3_ + 0.16999999999999998 Q_DT,PT_Bio,(4,_7),1_ + 0.16659999999999997 Q_DT,PT_Bio,(4,_7),2_ + 0.16149999999999998 Q_DT,PT_Bio,(4,_7),3_ + 0.1257625 Q_Td,PT_Bio,(4,_7),1_ + 0.12324725 Q_Td,PT_Bio,(4,_7),2_ + 0.119474375 Q_Td,PT_Bio,(4,_7),3_ + 0.9880000000000001 Q_Penta,PT_Bio,(4,_7),1_ + 0.9682400000000001 Q_Penta,PT_Bio,(4,_7),2_ + 0.9386000000000001 Q_Penta,PT_Bio,(4,_7),3_ - 1 N_PT_Bio,(4,_7)_ >= 0
c918: -6.3903762799479235e6 W_PT_Bio,(4,_7)_ - 1 Y_tilde_PT_Bio,4_ + 1 N_PT_Bio,(4,_7)_ >= -6.3903762799479235e6
c919: 0.350125 Q_M,PT_Bio,(4,_8),1_ + 0.3431225 Q_M,PT_Bio,(4,_8),2_ + 0.33261875 Q_M,PT_Bio,(4,_8),3_ + 0.08521875 Q_TT,PT_Bio,(4,_8),1_ + 0.08351437499999999 Q_TT,PT_Bio,(4,_8),2_ + 0.08095781249999999 Q_TT,PT_Bio,(4,_8),3_ + 0.13693750000000002 Q_OPV,PT_Bio,(4,_8),1_ + 0.13419875 Q_OPV,PT_Bio,(4,_8),2_ + 0.13009062500000002 Q_OPV,PT_Bio,(4,_8),3_ + 0.16999999999999998 Q_DT,PT_Bio,(4,_8),1_ + 0.16659999999999997 Q_DT,PT_Bio,(4,_8),2_ + 0.16149999999999998 Q_DT,PT_Bio,(4,_8),3_ + 0.1257625 Q_Td,PT_Bio,(4,_8),1_ + 0.12324725 Q_Td,PT_Bio,(4,_8),2_ + 0.119474375 Q_Td,PT_Bio,(4,_8),3_ + 0.9880000000000001 Q_Penta,PT_Bio,(4,_8),1_ + 0.9682400000000001 Q_Penta,PT_Bio,(4,_8),2_ + 0.9386000000000001 Q_Penta,PT_Bio,(4,_8),3_ - 1 N_PT_Bio,(4,_8)_ >= 0
c920: -7.987970349934906e6 W_PT_Bio,(4,_8)_ - 1 Y_tilde_PT_Bio,4_ + 1 N_PT_Bio,(4,_8)_ >= -7.987970349934906e6
c921: 0.3525625 Q_M,PT_Bio,(5,_5),1_ + 0.34551125 Q_M,PT_Bio,(5,_5),2_ + 0.334934375 Q_M,PT_Bio,(5,_5),3_ + 0.085140625 Q_TT,PT_Bio,(5,_5),1_ + 0.0834378125 Q_TT,PT_Bio,(5,_5),2_ + 0.08088359375 Q_TT,PT_Bio,(5,_5),3_ + 0.13693750000000002 Q_OPV,PT_Bio,(5,_5),1_ + 0.13419875 Q_OPV,PT_Bio,(5,_5),2_ + 0.13009062500000002 Q_OPV,PT_Bio,(5,_5),3_ + 0.16999999999999998 Q_DT,PT_Bio,(5,_5),1_ + 0.16659999999999997 Q_DT,PT_Bio,(5,_5),2_ + 0.16149999999999998 Q_DT,PT_Bio,(5,_5),3_ + 0.1287 Q_Td,PT_Bio,(5,_5),1_ + 0.12612600000000002 Q_Td,PT_Bio,(5,_5),2_ + 0.122265 Q_Td,PT_Bio,(5,_5),3_ + 1.001 Q_Penta,PT_Bio,(5,_5),1_ + 0.9809799999999999 Q_Penta,PT_Bio,(5,_5),2_ + 0.9509499999999999 Q_Penta,PT_Bio,(5,_5),3_ - 1 N_PT_Bio,(5,_5)_ >= 0
c922: -1.5975940699869809e6 W_PT_Bio,(5,_5)_ - 1 Y_tilde_PT_Bio,5_ + 1 N_PT_Bio,(5,_5)_ >= -1.5975940699869809e6
c923: 0.3525625 Q_M,PT_Bio,(5,_6),1_ + 0.34551125 Q_M,PT_Bio,(5,_6),2_ + 0.334934375 Q_M,PT_Bio,(5,_6),3_ + 0.085140625 Q_TT,PT_Bio,(5,_6),1_ + 0.0834378125 Q_TT,PT_Bio,(5,_6),2_ + 0.08088359375 Q_TT,PT_Bio,(5,_6),3_ + 0.13693750000000002 Q_OPV,PT_Bio,(5,_6),1_ + 0.13419875 Q_OPV,PT_Bio,(5,_6),2_ + 0.13009062500000002 Q_OPV,PT_Bio,(5,_6),3_ + 0.16999999999999998 Q_DT,PT_Bio,(5,_6),1_ + 0.16659999999999997 Q_DT,PT_Bio,(5,_6),2_ + 0.16149999999999998 Q_DT,PT_Bio,(5,_6),3_ + 0.1287 Q_Td,PT_Bio,(5,_6),1_ + 0.12612600000000002 Q_Td,PT_Bio,(5,_6),2_ + 0.122265 Q_Td,PT_Bio,(5,_6),3_ + 1.001 Q_Penta,PT_Bio,(5,_6),1_ + 0.9809799999999999 Q_Penta,PT_Bio,(5,_6),2_ + 0.9509499999999999 Q_Penta,PT_Bio,(5,_6),3_ - 1 N_PT_Bio,(5,_6)_ >= 0
c924: -3.195188139973961e6 W_PT_Bio,(5,_6)_ - 1 Y_tilde_PT_Bio,5_ + 1 N_PT_Bio,(5,_6)_ >= -3.195188139973961e6
c925: 0.3525625 Q_M,PT_Bio,(5,_7),1_ + 0.34551125 Q_M,PT_Bio,(5,_7),2_ + 0.334934375 Q_M,PT_Bio,(5,_7),3_ + 0.085140625 Q_TT,PT_Bio,(5,_7),1_ + 0.0834378125 Q_TT,PT_Bio,(5,_7),2_ + 0.08088359375 Q_TT,PT_Bio,(5,_7),3_ + 0.13693750000000002 Q_OPV,PT_Bio,(5,_7),1_ + 0.13419875 Q_OPV,PT_Bio,(5,_7),2_ + 0.13009062500000002 Q_OPV,PT_Bio,(5,_7),3_ + 0.16999999999999998 Q_DT,PT_Bio,(5,_7),1_ + 0.16659999999999997 Q_DT,PT_Bio,(5,_7),2_ + 0.16149999999999998 Q_DT,PT_Bio,(5,_7),3_ + 0.1287 Q_Td,PT_Bio,(5,_7),1_ + 0.12612600000000002 Q_Td,PT_Bio,(5,_7),2_ + 0.122265 Q_Td,PT_Bio,(5,_7),3_ + 1.001 Q_Penta,PT_Bio,(5,_7),1_ + 0.9809799999999999 Q_Penta,PT_Bio,(5,_7),2_ + 0.9509499999999999 Q_Penta,PT_Bio,(5,_7),3_ - 1 N_PT_Bio,(5,_7)_ >= 0
c926: -4.792782209960941e6 W_PT_Bio,(5,_7)_ - 1 Y_tilde_PT_Bio,5_ + 1 N_PT_Bio,(5,_7)_ >= -4.792782209960941e6
c927: 0.3525625 Q_M,PT_Bio,(5,_8),1_ + 0.34551125 Q_M,PT_Bio,(5,_8),2_ + 0.334934375 Q_M,PT_Bio,(5,_8),3_ + 0.085140625 Q_TT,PT_Bio,(5,_8),1_ + 0.0834378125 Q_TT,PT_Bio,(5,_8),2_ + 0.08088359375 Q_TT,PT_Bio,(5,_8),3_ + 0.13693750000000002 Q_OPV,PT_Bio,(5,_8),1_ + 0.13419875 Q_OPV,PT_Bio,(5,_8),2_ + 0.13009062500000002 Q_OPV,PT_Bio,(5,_8),3_ + 0.16999999999999998 Q_DT,PT_Bio,(5,_8),1_ + 0.16659999999999997 Q_DT,PT_Bio,(5,_8),2_ + 0.16149999999999998 Q_DT,PT_Bio,(5,_8),3_ + 0.1287 Q_Td,PT_Bio,(5,_8),1_ + 0.12612600000000002 Q_Td,PT_Bio,(5,_8),2_ + 0.122265 Q_Td,PT_Bio,(5,_8),3_ + 1.001 Q_Penta,PT_Bio,(5,_8),1_ + 0.9809799999999999 Q_Penta,PT_Bio,(5,_8),2_ + 0.9509499999999999 Q_Penta,PT_Bio,(5,_8),3_ - 1 N_PT_Bio,(5,_8)_ >= 0
c928: -6.3903762799479235e6 W_PT_Bio,(5,_8)_ - 1 Y_tilde_PT_Bio,5_ + 1 N_PT_Bio,(5,_8)_ >= -6.3903762799479235e6
c929: 0.3525625 Q_M,PT_Bio,(5,_9),1_ + 0.34551125 Q_M,PT_Bio,(5,_9),2_ + 0.334934375 Q_M,PT_Bio,(5,_9),3_ + 0.085140625 Q_TT,PT_Bio,(5,_9),1_ + 0.0834378125 Q_TT,PT_Bio,(5,_9),2_ + 0.08088359375 Q_TT,PT_Bio,(5,_9),3_ + 0.13693750000000002 Q_OPV,PT_Bio,(5,_9),1_ + 0.13419875 Q_OPV,PT_Bio,(5,_9),2_ + 0.13009062500000002 Q_OPV,PT_Bio,(5,_9),3_ + 0.16999999999999998 Q_DT,PT_Bio,(5,_9),1_ + 0.16659999999999997 Q_DT,PT_Bio,(5,_9),2_ + 0.16149999999999998 Q_DT,PT_Bio,(5,_9),3_ + 0.1287 Q_Td,PT_Bio,(5,_9),1_ + 0.12612600000000002 Q_Td,PT_Bio,(5,_9),2_ + 0.122265 Q_Td,PT_Bio,(5,_9),3_ + 1.001 Q_Penta,PT_Bio,(5,_9),1_ + 0.9809799999999999 Q_Penta,PT_Bio,(5,_9),2_ + 0.9509499999999999 Q_Penta,PT_Bio,(5,_9),3_ - 1 N_PT_Bio,(5,_9)_ >= 0
c930: -7.987970349934906e6 W_PT_Bio,(5,_9)_ - 1 Y_tilde_PT_Bio,5_ + 1 N_PT_Bio,(5,_9)_ >= -7.987970349934906e6
c931: 0.35134375 Q_M,PT_Bio,(6,_6),1_ + 0.344316875 Q_M,PT_Bio,(6,_6),2_ + 0.3337765625 Q_M,PT_Bio,(6,_6),3_ + 0.0851796875 Q_TT,PT_Bio,(6,_6),1_ + 0.08347609375000001 Q_TT,PT_Bio,(6,_6),2_ + 0.080920703125 Q_TT,PT_Bio,(6,_6),3_ + 0.13693750000000002 Q_OPV,PT_Bio,(6,_6),1_ + 0.13419875 Q_OPV,PT_Bio,(6,_6),2_ + 0.13009062500000002 Q_OPV,PT_Bio,(6,_6),3_ + 0.16999999999999998 Q_DT,PT_Bio,(6,_6),1_ + 0.16659999999999997 Q_DT,PT_Bio,(6,_6),2_ + 0.16149999999999998 Q_DT,PT_Bio,(6,_6),3_ + 0.124659375 Q_Td,PT_Bio,(6,_6),1_ + 0.1221661875 Q_Td,PT_Bio,(6,_6),2_ + 0.11842640624999999 Q_Td,PT_Bio,(6,_6),3_ + 0.9935 Q_Penta,PT_Bio,(6,_6),1_ + 0.97363 Q_Penta,PT_Bio,(6,_6),2_ + 0.943825 Q_Penta,PT_Bio,(6,_6),3_ - 1 N_PT_Bio,(6,_6)_ >= 0
c932: -1.5975940699869809e6 W_PT_Bio,(6,_6)_ - 1 Y_tilde_PT_Bio,6_ + 1 N_PT_Bio,(6,_6)_ >= -1.5975940699869809e6
c933: 0.35134375 Q_M,PT_Bio,(6,_7),1_ + 0.344316875 Q_M,PT_Bio,(6,_7),2_ + 0.3337765625 Q_M,PT_Bio,(6,_7),3_ + 0.0851796875 Q_TT,PT_Bio,(6,_7),1_ + 0.08347609375000001 Q_TT,PT_Bio,(6,_7),2_ + 0.080920703125 Q_TT,PT_Bio,(6,_7),3_ + 0.13693750000000002 Q_OPV,PT_Bio,(6,_7),1_ + 0.13419875 Q_OPV,PT_Bio,(6,_7),2_ + 0.13009062500000002 Q_OPV,PT_Bio,(6,_7),3_ + 0.16999999999999998 Q_DT,PT_Bio,(6,_7),1_ + 0.16659999999999997 Q_DT,PT_Bio,(6,_7),2_ + 0.16149999999999998 Q_DT,PT_Bio,(6,_7),3_ + 0.124659375 Q_Td,PT_Bio,(6,_7),1_ + 0.1221661875 Q_Td,PT_Bio,(6,_7),2_ + 0.11842640624999999 Q_Td,PT_Bio,(6,_7),3_ + 0.9935 Q_Penta,PT_Bio,(6,_7),1_ + 0.97363 Q_Penta,PT_Bio,(6,_7),2_ + 0.943825 Q_Penta,PT_Bio,(6,_7),3_ - 1 N_PT_Bio,(6,_7)_ >= 0
c934: -3.195188139973961e6 W_PT_Bio,(6,_7)_ - 1 Y_tilde_PT_Bio,6_ + 1 N_PT_Bio,(6,_7)_ >= -3.195188139973961e6
c935: 0.35134375 Q_M,PT_Bio,(6,_8),1_ + 0.344316875 Q_M,PT_Bio,(6,_8),2_ + 0.3337765625 Q_M,PT_Bio,(6,_8),3_ + 0.0851796875 Q_TT,PT_Bio,(6,_8),1_ + 0.08347609375000001 Q_TT,PT_Bio,(6,_8),2_ + 0.080920703125 Q_TT,PT_Bio,(6,_8),3_ + 0.13693750000000002 Q_OPV,PT_Bio,(6,_8),1_ + 0.13419875 Q_OPV,PT_Bio,(6,_8),2_ + 0.13009062500000002 Q_OPV,PT_Bio,(6,_8),3_ + 0.16999999999999998 Q_DT,PT_Bio,(6,_8),1_ + 0.16659999999999997 Q_DT,PT_Bio,(6,_8),2_ + 0.16149999999999998 Q_DT,PT_Bio,(6,_8),3_ + 0.124659375 Q_Td,PT_Bio,(6,_8),1_ + 0.1221661875 Q_Td,PT_Bio,(6,_8),2_ + 0.11842640624999999 Q_Td,PT_Bio,(6,_8),3_ + 0.9935 Q_Penta,PT_Bio,(6,_8),1_ + 0.97363 Q_Penta,PT_Bio,(6,_8),2_ + 0.943825 Q_Penta,PT_Bio,(6,_8),3_ - 1 N_PT_Bio,(6,_8)_ >= 0
c936: -4.792782209960941e6 W_PT_Bio,(6,_8)_ - 1 Y_tilde_PT_Bio,6_ + 1 N_PT_Bio,(6,_8)_ >= -4.792782209960941e6
c937: 0.35134375 Q_M,PT_Bio,(6,_9),1_ + 0.344316875 Q_M,PT_Bio,(6,_9),2_ + 0.3337765625 Q_M,PT_Bio,(6,_9),3_ + 0.0851796875 Q_TT,PT_Bio,(6,_9),1_ + 0.08347609375000001 Q_TT,PT_Bio,(6,_9),2_ + 0.080920703125 Q_TT,PT_Bio,(6,_9),3_ + 0.13693750000000002 Q_OPV,PT_Bio,(6,_9),1_ + 0.13419875 Q_OPV,PT_Bio,(6,_9),2_ + 0.13009062500000002 Q_OPV,PT_Bio,(6,_9),3_ + 0.16999999999999998 Q_DT,PT_Bio,(6,_9),1_ + 0.16659999999999997 Q_DT,PT_Bio,(6,_9),2_ + 0.16149999999999998 Q_DT,PT_Bio,(6,_9),3_ + 0.124659375 Q_Td,PT_Bio,(6,_9),1_ + 0.1221661875 Q_Td,PT_Bio,(6,_9),2_ + 0.11842640624999999 Q_Td,PT_Bio,(6,_9),3_ + 0.9935 Q_Penta,PT_Bio,(6,_9),1_ + 0.97363 Q_Penta,PT_Bio,(6,_9),2_ + 0.943825 Q_Penta,PT_Bio,(6,_9),3_ - 1 N_PT_Bio,(6,_9)_ >= 0
c938: -6.3903762799479235e6 W_PT_Bio,(6,_9)_ - 1 Y_tilde_PT_Bio,6_ + 1 N_PT_Bio,(6,_9)_ >= -6.3903762799479235e6
c939: 0.35134375 Q_M,PT_Bio,(6,_10),1_ + 0.344316875 Q_M,PT_Bio,(6,_10),2_ + 0.3337765625 Q_M,PT_Bio,(6,_10),3_ + 0.0851796875 Q_TT,PT_Bio,(6,_10),1_ + 0.08347609375000001 Q_TT,PT_Bio,(6,_10),2_ + 0.080920703125 Q_TT,PT_Bio,(6,_10),3_ + 0.13693750000000002 Q_OPV,PT_Bio,(6,_10),1_ + 0.13419875 Q_OPV,PT_Bio,(6,_10),2_ + 0.13009062500000002 Q_OPV,PT_Bio,(6,_10),3_ + 0.16999999999999998 Q_DT,PT_Bio,(6,_10),1_ + 0.16659999999999997 Q_DT,PT_Bio,(6,_10),2_ + 0.16149999999999998 Q_DT,PT_Bio,(6,_10),3_ + 0.124659375 Q_Td,PT_Bio,(6,_10),1_ + 0.1221661875 Q_Td,PT_Bio,(6,_10),2_ + 0.11842640624999999 Q_Td,PT_Bio,(6,_10),3_ + 0.9935 Q_Penta,PT_Bio,(6,_10),1_ + 0.97363 Q_Penta,PT_Bio,(6,_10),2_ + 0.943825 Q_Penta,PT_Bio,(6,_10),3_ - 1 N_PT_Bio,(6,_10)_ >= 0
c940: -7.987970349934906e6 W_PT_Bio,(6,_10)_ - 1 Y_tilde_PT_Bio,6_ + 1 N_PT_Bio,(6,_10)_ >= -7.987970349934906e6
c941: 0.351953125 Q_M,PT_Bio,(7,_7),1_ + 0.34491406249999995 Q_M,PT_Bio,(7,_7),2_ + 0.33435546874999994 Q_M,PT_Bio,(7,_7),3_ + 0.08669765624999999 Q_TT,PT_Bio,(7,_7),1_ + 0.08496370312499998 Q_TT,PT_Bio,(7,_7),2_ + 0.08236277343749998 Q_TT,PT_Bio,(7,_7),3_ + 0.13693750000000002 Q_OPV,PT_Bio,(7,_7),1_ + 0.13419875 Q_OPV,PT_Bio,(7,_7),2_ + 0.13009062500000002 Q_OPV,PT_Bio,(7,_7),3_ + 0.16999999999999998 Q_DT,PT_Bio,(7,_7),1_ + 0.16659999999999997 Q_DT,PT_Bio,(7,_7),2_ + 0.16149999999999998 Q_DT,PT_Bio,(7,_7),3_ + 0.1292953125 Q_Td,PT_Bio,(7,_7),1_ + 0.12670940625000002 Q_Td,PT_Bio,(7,_7),2_ + 0.122830546875 Q_Td,PT_Bio,(7,_7),3_ + 0.99825 Q_Penta,PT_Bio,(7,_7),1_ + 0.978285 Q_Penta,PT_Bio,(7,_7),2_ + 0.9483374999999999 Q_Penta,PT_Bio,(7,_7),3_ - 1 N_PT_Bio,(7,_7)_ >= 0
c942: -1.5975940699869809e6 W_PT_Bio,(7,_7)_ - 1 Y_tilde_PT_Bio,7_ + 1 N_PT_Bio,(7,_7)_ >= -1.5975940699869809e6
c943: 0.351953125 Q_M,PT_Bio,(7,_8),1_ + 0.34491406249999995 Q_M,PT_Bio,(7,_8),2_ + 0.33435546874999994 Q_M,PT_Bio,(7,_8),3_ + 0.08669765624999999 Q_TT,PT_Bio,(7,_8),1_ + 0.08496370312499998 Q_TT,PT_Bio,(7,_8),2_ + 0.08236277343749998 Q_TT,PT_Bio,(7,_8),3_ + 0.13693750000000002 Q_OPV,PT_Bio,(7,_8),1_ + 0.13419875 Q_OPV,PT_Bio,(7,_8),2_ + 0.13009062500000002 Q_OPV,PT_Bio,(7,_8),3_ + 0.16999999999999998 Q_DT,PT_Bio,(7,_8),1_ + 0.16659999999999997 Q_DT,PT_Bio,(7,_8),2_ + 0.16149999999999998 Q_DT,PT_Bio,(7,_8),3_ + 0.1292953125 Q_Td,PT_Bio,(7,_8),1_ + 0.12670940625000002 Q_Td,PT_Bio,(7,_8),2_ + 0.122830546875 Q_Td,PT_Bio,(7,_8),3_ + 0.99825 Q_Penta,PT_Bio,(7,_8),1_ + 0.978285 Q_Penta,PT_Bio,(7,_8),2_ + 0.9483374999999999 Q_Penta,PT_Bio,(7,_8),3_ - 1 N_PT_Bio,(7,_8)_ >= 0
c944: -3.195188139973961e6 W_PT_Bio,(7,_8)_ - 1 Y_tilde_PT_Bio,7_ + 1 N_PT_Bio,(7,_8)_ >= -3.195188139973961e6
c945: 0.351953125 Q_M,PT_Bio,(7,_9),1_ + 0.34491406249999995 Q_M,PT_Bio,(7,_9),2_ + 0.33435546874999994 Q_M,PT_Bio,(7,_9),3_ + 0.08669765624999999 Q_TT,PT_Bio,(7,_9),1_ + 0.08496370312499998 Q_TT,PT_Bio,(7,_9),2_ + 0.08236277343749998 Q_TT,PT_Bio,(7,_9),3_ + 0.13693750000000002 Q_OPV,PT_Bio,(7,_9),1_ + 0.13419875 Q_OPV,PT_Bio,(7,_9),2_ + 0.13009062500000002 Q_OPV,PT_Bio,(7,_9),3_ + 0.16999999999999998 Q_DT,PT_Bio,(7,_9),1_ + 0.16659999999999997 Q_DT,PT_Bio,(7,_9),2_ + 0.16149999999999998 Q_DT,PT_Bio,(7,_9),3_ + 0.1292953125 Q_Td,PT_Bio,(7,_9),1_ + 0.12670940625000002 Q_Td,PT_Bio,(7,_9),2_ + 0.122830546875 Q_Td,PT_Bio,(7,_9),3_ + 0.99825 Q_Penta,PT_Bio,(7,_9),1_ + 0.978285 Q_Penta,PT_Bio,(7,_9),2_ + 0.9483374999999999 Q_Penta,PT_Bio,(7,_9),3_ - 1 N_PT_Bio,(7,_9)_ >= 0
c946: -4.792782209960941e6 W_PT_Bio,(7,_9)_ - 1 Y_tilde_PT_Bio,7_ + 1 N_PT_Bio,(7,_9)_ >= -4.792782209960941e6
c947: 0.351953125 Q_M,PT_Bio,(7,_10),1_ + 0.34491406249999995 Q_M,PT_Bio,(7,_10),2_ + 0.33435546874999994 Q_M,PT_Bio,(7,_10),3_ + 0.08669765624999999 Q_TT,PT_Bio,(7,_10),1_ + 0.08496370312499998 Q_TT,PT_Bio,(7,_10),2_ + 0.08236277343749998 Q_TT,PT_Bio,(7,_10),3_ + 0.13693750000000002 Q_OPV,PT_Bio,(7,_10),1_ + 0.13419875 Q_OPV,PT_Bio,(7,_10),2_ + 0.13009062500000002 Q_OPV,PT_Bio,(7,_10),3_ + 0.16999999999999998 Q_DT,PT_Bio,(7,_10),1_ + 0.16659999999999997 Q_DT,PT_Bio,(7,_10),2_ + 0.16149999999999998 Q_DT,PT_Bio,(7,_10),3_ + 0.1292953125 Q_Td,PT_Bio,(7,_10),1_ + 0.12670940625000002 Q_Td,PT_Bio,(7,_10),2_ + 0.122830546875 Q_Td,PT_Bio,(7,_10),3_ + 0.99825 Q_Penta,PT_Bio,(7,_10),1_ + 0.978285 Q_Penta,PT_Bio,(7,_10),2_ + 0.9483374999999999 Q_Penta,PT_Bio,(7,_10),3_ - 1 N_PT_Bio,(7,_10)_ >= 0
c948: -6.3903762799479235e6 W_PT_Bio,(7,_10)_ - 1 Y_tilde_PT_Bio,7_ + 1 N_PT_Bio,(7,_10)_ >= -6.3903762799479235e6
c949: 0.35164843749999997 Q_M,PT_Bio,(8,_8),1_ + 0.34461546875 Q_M,PT_Bio,(8,_8),2_ + 0.33406601562499993 Q_M,PT_Bio,(8,_8),3_ + 0.086707421875 Q_TT,PT_Bio,(8,_8),1_ + 0.0849732734375 Q_TT,PT_Bio,(8,_8),2_ + 0.08237205078125 Q_TT,PT_Bio,(8,_8),3_ + 0.13693750000000002 Q_OPV,PT_Bio,(8,_8),1_ + 0.13419875 Q_OPV,PT_Bio,(8,_8),2_ + 0.13009062500000002 Q_OPV,PT_Bio,(8,_8),3_ + 0.16999999999999998 Q_DT,PT_Bio,(8,_8),1_ + 0.16659999999999997 Q_DT,PT_Bio,(8,_8),2_ + 0.16149999999999998 Q_DT,PT_Bio,(8,_8),3_ + 0.12897734375 Q_Td,PT_Bio,(8,_8),1_ + 0.126397796875 Q_Td,PT_Bio,(8,_8),2_ + 0.12252847656249999 Q_Td,PT_Bio,(8,_8),3_ + 0.996875 Q_Penta,PT_Bio,(8,_8),1_ + 0.9769374999999999 Q_Penta,PT_Bio,(8,_8),2_ + 0.9470312499999999 Q_Penta,PT_Bio,(8,_8),3_ - 1 N_PT_Bio,(8,_8)_ >= 0
c950: -1.5975940699869809e6 W_PT_Bio,(8,_8)_ - 1 Y_tilde_PT_Bio,8_ + 1 N_PT_Bio,(8,_8)_ >= -1.5975940699869809e6
c951: 0.35164843749999997 Q_M,PT_Bio,(8,_9),1_ + 0.34461546875 Q_M,PT_Bio,(8,_9),2_ + 0.33406601562499993 Q_M,PT_Bio,(8,_9),3_ + 0.086707421875 Q_TT,PT_Bio,(8,_9),1_ + 0.0849732734375 Q_TT,PT_Bio,(8,_9),2_ + 0.08237205078125 Q_TT,PT_Bio,(8,_9),3_ + 0.13693750000000002 Q_OPV,PT_Bio,(8,_9),1_ + 0.13419875 Q_OPV,PT_Bio,(8,_9),2_ + 0.13009062500000002 Q_OPV,PT_Bio,(8,_9),3_ + 0.16999999999999998 Q_DT,PT_Bio,(8,_9),1_ + 0.16659999999999997 Q_DT,PT_Bio,(8,_9),2_ + 0.16149999999999998 Q_DT,PT_Bio,(8,_9),3_ + 0.12897734375 Q_Td,PT_Bio,(8,_9),1_ + 0.126397796875 Q_Td,PT_Bio,(8,_9),2_ + 0.12252847656249999 Q_Td,PT_Bio,(8,_9),3_ + 0.996875 Q_Penta,PT_Bio,(8,_9),1_ + 0.9769374999999999 Q_Penta,PT_Bio,(8,_9),2_ + 0.9470312499999999 Q_Penta,PT_Bio,(8,_9),3_ - 1 N_PT_Bio,(8,_9)_ >= 0
c952: -3.195188139973961e6 W_PT_Bio,(8,_9)_ - 1 Y_tilde_PT_Bio,8_ + 1 N_PT_Bio,(8,_9)_ >= -3.195188139973961e6
c953: 0.35164843749999997 Q_M,PT_Bio,(8,_10),1_ + 0.34461546875 Q_M,PT_Bio,(8,_10),2_ + 0.33406601562499993 Q_M,PT_Bio,(8,_10),3_ + 0.086707421875 Q_TT,PT_Bio,(8,_10),1_ + 0.0849732734375 Q_TT,PT_Bio,(8,_10),2_ + 0.08237205078125 Q_TT,PT_Bio,(8,_10),3_ + 0.13693750000000002 Q_OPV,PT_Bio,(8,_10),1_ + 0.13419875 Q_OPV,PT_Bio,(8,_10),2_ + 0.13009062500000002 Q_OPV,PT_Bio,(8,_10),3_ + 0.16999999999999998 Q_DT,PT_Bio,(8,_10),1_ + 0.16659999999999997 Q_DT,PT_Bio,(8,_10),2_ + 0.16149999999999998 Q_DT,PT_Bio,(8,_10),3_ + 0.12897734375 Q_Td,PT_Bio,(8,_10),1_ + 0.126397796875 Q_Td,PT_Bio,(8,_10),2_ + 0.12252847656249999 Q_Td,PT_Bio,(8,_10),3_ + 0.996875 Q_Penta,PT_Bio,(8,_10),1_ + 0.9769374999999999 Q_Penta,PT_Bio,(8,_10),2_ + 0.9470312499999999 Q_Penta,PT_Bio,(8,_10),3_ - 1 N_PT_Bio,(8,_10)_ >= 0
c954: -4.792782209960941e6 W_PT_Bio,(8,_10)_ - 1 Y_tilde_PT_Bio,8_ + 1 N_PT_Bio,(8,_10)_ >= -4.792782209960941e6
c955: 0.35180078125 Q_M,PT_Bio,(9,_9),1_ + 0.344764765625 Q_M,PT_Bio,(9,_9),2_ + 0.3342107421875 Q_M,PT_Bio,(9,_9),3_ + 0.0867025390625 Q_TT,PT_Bio,(9,_9),1_ + 0.08496848828125 Q_TT,PT_Bio,(9,_9),2_ + 0.082367412109375 Q_TT,PT_Bio,(9,_9),3_ + 0.13693750000000002 Q_OPV,PT_Bio,(9,_9),1_ + 0.13419875 Q_OPV,PT_Bio,(9,_9),2_ + 0.13009062500000002 Q_OPV,PT_Bio,(9,_9),3_ + 0.16999999999999998 Q_DT,PT_Bio,(9,_9),1_ + 0.16659999999999997 Q_DT,PT_Bio,(9,_9),2_ + 0.16149999999999998 Q_DT,PT_Bio,(9,_9),3_ + 0.129136328125 Q_Td,PT_Bio,(9,_9),1_ + 0.1265536015625 Q_Td,PT_Bio,(9,_9),2_ + 0.12267951171875 Q_Td,PT_Bio,(9,_9),3_ + 0.9975625000000001 Q_Penta,PT_Bio,(9,_9),1_ + 0.9776112500000002 Q_Penta,PT_Bio,(9,_9),2_ + 0.9476843750000001 Q_Penta,PT_Bio,(9,_9),3_ - 1 N_PT_Bio,(9,_9)_ >= 0
c956: -1.5975940699869809e6 W_PT_Bio,(9,_9)_ - 1 Y_tilde_PT_Bio,9_ + 1 N_PT_Bio,(9,_9)_ >= -1.5975940699869809e6
c957: 0.35180078125 Q_M,PT_Bio,(9,_10),1_ + 0.344764765625 Q_M,PT_Bio,(9,_10),2_ + 0.3342107421875 Q_M,PT_Bio,(9,_10),3_ + 0.0867025390625 Q_TT,PT_Bio,(9,_10),1_ + 0.08496848828125 Q_TT,PT_Bio,(9,_10),2_ + 0.082367412109375 Q_TT,PT_Bio,(9,_10),3_ + 0.13693750000000002 Q_OPV,PT_Bio,(9,_10),1_ + 0.13419875 Q_OPV,PT_Bio,(9,_10),2_ + 0.13009062500000002 Q_OPV,PT_Bio,(9,_10),3_ + 0.16999999999999998 Q_DT,PT_Bio,(9,_10),1_ + 0.16659999999999997 Q_DT,PT_Bio,(9,_10),2_ + 0.16149999999999998 Q_DT,PT_Bio,(9,_10),3_ + 0.129136328125 Q_Td,PT_Bio,(9,_10),1_ + 0.1265536015625 Q_Td,PT_Bio,(9,_10),2_ + 0.12267951171875 Q_Td,PT_Bio,(9,_10),3_ + 0.9975625000000001 Q_Penta,PT_Bio,(9,_10),1_ + 0.9776112500000002 Q_Penta,PT_Bio,(9,_10),2_ + 0.9476843750000001 Q_Penta,PT_Bio,(9,_10),3_ - 1 N_PT_Bio,(9,_10)_ >= 0
c958: -3.195188139973961e6 W_PT_Bio,(9,_10)_ - 1 Y_tilde_PT_Bio,9_ + 1 N_PT_Bio,(9,_10)_ >= -3.195188139973961e6
c959: 0.351724609375 Q_M,PT_Bio,(10,_10),1_ + 0.3446901171875 Q_M,PT_Bio,(10,_10),2_ + 0.33413837890625 Q_M,PT_Bio,(10,_10),3_ + 0.09829248046875 Q_TT,PT_Bio,(10,_10),1_ + 0.096326630859375 Q_TT,PT_Bio,(10,_10),2_ + 0.09337785644531249 Q_TT,PT_Bio,(10,_10),3_ + 0.13693750000000002 Q_OPV,PT_Bio,(10,_10),1_ + 0.13419875 Q_OPV,PT_Bio,(10,_10),2_ + 0.13009062500000002 Q_OPV,PT_Bio,(10,_10),3_ + 0.16999999999999998 Q_DT,PT_Bio,(10,_10),1_ + 0.16659999999999997 Q_DT,PT_Bio,(10,_10),2_ + 0.16149999999999998 Q_DT,PT_Bio,(10,_10),3_ + 0.1290568359375 Q_Td,PT_Bio,(10,_10),1_ + 0.12647569921875 Q_Td,PT_Bio,(10,_10),2_ + 0.12260399414062499 Q_Td,PT_Bio,(10,_10),3_ + 0.99721875 Q_Penta,PT_Bio,(10,_10),1_ + 0.977274375 Q_Penta,PT_Bio,(10,_10),2_ + 0.9473578125 Q_Penta,PT_Bio,(10,_10),3_ - 1 N_PT_Bio,(10,_10)_ >= 0
c960: -1.5975940699869809e6 W_PT_Bio,(10,_10)_ - 1 Y_tilde_PT_Bio,10_ + 1 N_PT_Bio,(10,_10)_ >= -1.5975940699869809e6
c961: 2.262625 Q_IPV,Sanofi,(1,_1),1_ + 2.2173724999999997 Q_IPV,Sanofi,(1,_1),2_ + 2.14949375 Q_IPV,Sanofi,(1,_1),3_ + 0.13305 Q_OPV,Sanofi,(1,_1),1_ + 0.130389 Q_OPV,Sanofi,(1,_1),2_ + 0.1263975 Q_OPV,Sanofi,(1,_1),3_ + 4.9 Q_Hexa,Sanofi,(1,_1),1_ + 4.8020000000000005 Q_Hexa,Sanofi,(1,_1),2_ + 4.655 Q_Hexa,Sanofi,(1,_1),3_ - 1 N_Sanofi,(1,_1)_ >= 0
c962: -8.432458449479176e7 W_Sanofi,(1,_1)_ - 1 Y_tilde_Sanofi,1_ + 1 N_Sanofi,(1,_1)_ >= -8.432458449479176e7
c963: 2.262625 Q_IPV,Sanofi,(1,_2),1_ + 2.2173724999999997 Q_IPV,Sanofi,(1,_2),2_ + 2.14949375 Q_IPV,Sanofi,(1,_2),3_ + 0.13305 Q_OPV,Sanofi,(1,_2),1_ + 0.130389 Q_OPV,Sanofi,(1,_2),2_ + 0.1263975 Q_OPV,Sanofi,(1,_2),3_ + 4.9 Q_Hexa,Sanofi,(1,_2),1_ + 4.8020000000000005 Q_Hexa,Sanofi,(1,_2),2_ + 4.655 Q_Hexa,Sanofi,(1,_2),3_ - 1 N_Sanofi,(1,_2)_ >= 0
c964: -1.6864916898958355e8 W_Sanofi,(1,_2)_ - 1 Y_tilde_Sanofi,1_ + 1 N_Sanofi,(1,_2)_ >= -1.6864916898958355e8
c965: 2.262625 Q_IPV,Sanofi,(1,_3),1_ + 2.2173724999999997 Q_IPV,Sanofi,(1,_3),2_ + 2.14949375 Q_IPV,Sanofi,(1,_3),3_ + 0.13305 Q_OPV,Sanofi,(1,_3),1_ + 0.130389 Q_OPV,Sanofi,(1,_3),2_ + 0.1263975 Q_OPV,Sanofi,(1,_3),3_ + 4.9 Q_Hexa,Sanofi,(1,_3),1_ + 4.8020000000000005 Q_Hexa,Sanofi,(1,_3),2_ + 4.655 Q_Hexa,Sanofi,(1,_3),3_ - 1 N_Sanofi,(1,_3)_ >= 0
c966: -2.5297375348437536e8 W_Sanofi,(1,_3)_ - 1 Y_tilde_Sanofi,1_ + 1 N_Sanofi,(1,_3)_ >= -2.5297375348437536e8
c967: 2.262625 Q_IPV,Sanofi,(1,_4),1_ + 2.2173724999999997 Q_IPV,Sanofi,(1,_4),2_ + 2.14949375 Q_IPV,Sanofi,(1,_4),3_ + 0.13305 Q_OPV,Sanofi,(1,_4),1_ + 0.130389 Q_OPV,Sanofi,(1,_4),2_ + 0.1263975 Q_OPV,Sanofi,(1,_4),3_ + 4.9 Q_Hexa,Sanofi,(1,_4),1_ + 4.8020000000000005 Q_Hexa,Sanofi,(1,_4),2_ + 4.655 Q_Hexa,Sanofi,(1,_4),3_ - 1 N_Sanofi,(1,_4)_ >= 0
c968: -3.3729833797916716e8 W_Sanofi,(1,_4)_ - 1 Y_tilde_Sanofi,1_ + 1 N_Sanofi,(1,_4)_ >= -3.3729833797916716e8
c969: 2.262625 Q_IPV,Sanofi,(1,_5),1_ + 2.2173724999999997 Q_IPV,Sanofi,(1,_5),2_ + 2.14949375 Q_IPV,Sanofi,(1,_5),3_ + 0.13305 Q_OPV,Sanofi,(1,_5),1_ + 0.130389 Q_OPV,Sanofi,(1,_5),2_ + 0.1263975 Q_OPV,Sanofi,(1,_5),3_ + 4.9 Q_Hexa,Sanofi,(1,_5),1_ + 4.8020000000000005 Q_Hexa,Sanofi,(1,_5),2_ + 4.655 Q_Hexa,Sanofi,(1,_5),3_ - 1 N_Sanofi,(1,_5)_ >= 0
c970: -4.2162292247395897e8 W_Sanofi,(1,_5)_ - 1 Y_tilde_Sanofi,1_ + 1 N_Sanofi,(1,_5)_ >= -4.2162292247395897e8
c971: 1.987625 Q_IPV,Sanofi,(2,_2),1_ + 1.9478725 Q_IPV,Sanofi,(2,_2),2_ + 1.88824375 Q_IPV,Sanofi,(2,_2),3_ + 0.13693750000000002 Q_OPV,Sanofi,(2,_2),1_ + 0.13419875 Q_OPV,Sanofi,(2,_2),2_ + 0.13009062500000002 Q_OPV,Sanofi,(2,_2),3_ + 4.5 Q_Hexa,Sanofi,(2,_2),1_ + 4.41 Q_Hexa,Sanofi,(2,_2),2_ + 4.2749999999999995 Q_Hexa,Sanofi,(2,_2),3_ - 1 N_Sanofi,(2,_2)_ >= 0
c972: -8.432458449479176e7 W_Sanofi,(2,_2)_ - 1 Y_tilde_Sanofi,2_ + 1 N_Sanofi,(2,_2)_ >= -8.432458449479176e7
c973: 1.987625 Q_IPV,Sanofi,(2,_3),1_ + 1.9478725 Q_IPV,Sanofi,(2,_3),2_ + 1.88824375 Q_IPV,Sanofi,(2,_3),3_ + 0.13693750000000002 Q_OPV,Sanofi,(2,_3),1_ + 0.13419875 Q_OPV,Sanofi,(2,_3),2_ + 0.13009062500000002 Q_OPV,Sanofi,(2,_3),3_ + 4.5 Q_Hexa,Sanofi,(2,_3),1_ + 4.41 Q_Hexa,Sanofi,(2,_3),2_ + 4.2749999999999995 Q_Hexa,Sanofi,(2,_3),3_ - 1 N_Sanofi,(2,_3)_ >= 0
c974: -1.6864916898958355e8 W_Sanofi,(2,_3)_ - 1 Y_tilde_Sanofi,2_ + 1 N_Sanofi,(2,_3)_ >= -1.6864916898958355e8
c975: 1.987625 Q_IPV,Sanofi,(2,_4),1_ + 1.9478725 Q_IPV,Sanofi,(2,_4),2_ + 1.88824375 Q_IPV,Sanofi,(2,_4),3_ + 0.13693750000000002 Q_OPV,Sanofi,(2,_4),1_ + 0.13419875 Q_OPV,Sanofi,(2,_4),2_ + 0.13009062500000002 Q_OPV,Sanofi,(2,_4),3_ + 4.5 Q_Hexa,Sanofi,(2,_4),1_ + 4.41 Q_Hexa,Sanofi,(2,_4),2_ + 4.2749999999999995 Q_Hexa,Sanofi,(2,_4),3_ - 1 N_Sanofi,(2,_4)_ >= 0
c976: -2.5297375348437536e8 W_Sanofi,(2,_4)_ - 1 Y_tilde_Sanofi,2_ + 1 N_Sanofi,(2,_4)_ >= -2.5297375348437536e8
c977: 1.987625 Q_IPV,Sanofi,(2,_5),1_ + 1.9478725 Q_IPV,Sanofi,(2,_5),2_ + 1.88824375 Q_IPV,Sanofi,(2,_5),3_ + 0.13693750000000002 Q_OPV,Sanofi,(2,_5),1_ + 0.13419875 Q_OPV,Sanofi,(2,_5),2_ + 0.13009062500000002 Q_OPV,Sanofi,(2,_5),3_ + 4.5 Q_Hexa,Sanofi,(2,_5),1_ + 4.41 Q_Hexa,Sanofi,(2,_5),2_ + 4.2749999999999995 Q_Hexa,Sanofi,(2,_5),3_ - 1 N_Sanofi,(2,_5)_ >= 0
c978: -3.3729833797916716e8 W_Sanofi,(2,_5)_ - 1 Y_tilde_Sanofi,2_ + 1 N_Sanofi,(2,_5)_ >= -3.3729833797916716e8
c979: 1.987625 Q_IPV,Sanofi,(2,_6),1_ + 1.9478725 Q_IPV,Sanofi,(2,_6),2_ + 1.88824375 Q_IPV,Sanofi,(2,_6),3_ + 0.13693750000000002 Q_OPV,Sanofi,(2,_6),1_ + 0.13419875 Q_OPV,Sanofi,(2,_6),2_ + 0.13009062500000002 Q_OPV,Sanofi,(2,_6),3_ + 4.5 Q_Hexa,Sanofi,(2,_6),1_ + 4.41 Q_Hexa,Sanofi,(2,_6),2_ + 4.2749999999999995 Q_Hexa,Sanofi,(2,_6),3_ - 1 N_Sanofi,(2,_6)_ >= 0
c980: -4.2162292247395897e8 W_Sanofi,(2,_6)_ - 1 Y_tilde_Sanofi,2_ + 1 N_Sanofi,(2,_6)_ >= -4.2162292247395897e8
c981: 1.812625 Q_IPV,Sanofi,(3,_3),1_ + 1.7763725 Q_IPV,Sanofi,(3,_3),2_ + 1.7219937499999998 Q_IPV,Sanofi,(3,_3),3_ + 0.13693750000000002 Q_OPV,Sanofi,(3,_3),1_ + 0.13419875 Q_OPV,Sanofi,(3,_3),2_ + 0.13009062500000002 Q_OPV,Sanofi,(3,_3),3_ + 4.7 Q_Hexa,Sanofi,(3,_3),1_ + 4.606 Q_Hexa,Sanofi,(3,_3),2_ + 4.465 Q_Hexa,Sanofi,(3,_3),3_ - 1 N_Sanofi,(3,_3)_ >= 0
c982: -8.432458449479176e7 W_Sanofi,(3,_3)_ - 1 Y_tilde_Sanofi,3_ + 1 N_Sanofi,(3,_3)_ >= -8.432458449479176e7
c983: 1.812625 Q_IPV,Sanofi,(3,_4),1_ + 1.7763725 Q_IPV,Sanofi,(3,_4),2_ + 1.7219937499999998 Q_IPV,Sanofi,(3,_4),3_ + 0.13693750000000002 Q_OPV,Sanofi,(3,_4),1_ + 0.13419875 Q_OPV,Sanofi,(3,_4),2_ + 0.13009062500000002 Q_OPV,Sanofi,(3,_4),3_ + 4.7 Q_Hexa,Sanofi,(3,_4),1_ + 4.606 Q_Hexa,Sanofi,(3,_4),2_ + 4.465 Q_Hexa,Sanofi,(3,_4),3_ - 1 N_Sanofi,(3,_4)_ >= 0
c984: -1.6864916898958355e8 W_Sanofi,(3,_4)_ - 1 Y_tilde_Sanofi,3_ + 1 N_Sanofi,(3,_4)_ >= -1.6864916898958355e8
c985: 1.812625 Q_IPV,Sanofi,(3,_5),1_ + 1.7763725 Q_IPV,Sanofi,(3,_5),2_ + 1.7219937499999998 Q_IPV,Sanofi,(3,_5),3_ + 0.13693750000000002 Q_OPV,Sanofi,(3,_5),1_ + 0.13419875 Q_OPV,Sanofi,(3,_5),2_ + 0.13009062500000002 Q_OPV,Sanofi,(3,_5),3_ + 4.7 Q_Hexa,Sanofi,(3,_5),1_ + 4.606 Q_Hexa,Sanofi,(3,_5),2_ + 4.465 Q_Hexa,Sanofi,(3,_5),3_ - 1 N_Sanofi,(3,_5)_ >= 0
c986: -2.5297375348437536e8 W_Sanofi,(3,_5)_ - 1 Y_tilde_Sanofi,3_ + 1 N_Sanofi,(3,_5)_ >= -2.5297375348437536e8
c987: 1.812625 Q_IPV,Sanofi,(3,_6),1_ + 1.7763725 Q_IPV,Sanofi,(3,_6),2_ + 1.7219937499999998 Q_IPV,Sanofi,(3,_6),3_ + 0.13693750000000002 Q_OPV,Sanofi,(3,_6),1_ + 0.13419875 Q_OPV,Sanofi,(3,_6),2_ + 0.13009062500000002 Q_OPV,Sanofi,(3,_6),3_ + 4.7 Q_Hexa,Sanofi,(3,_6),1_ + 4.606 Q_Hexa,Sanofi,(3,_6),2_ + 4.465 Q_Hexa,Sanofi,(3,_6),3_ - 1 N_Sanofi,(3,_6)_ >= 0
c988: -3.3729833797916716e8 W_Sanofi,(3,_6)_ - 1 Y_tilde_Sanofi,3_ + 1 N_Sanofi,(3,_6)_ >= -3.3729833797916716e8
c989: 1.812625 Q_IPV,Sanofi,(3,_7),1_ + 1.7763725 Q_IPV,Sanofi,(3,_7),2_ + 1.7219937499999998 Q_IPV,Sanofi,(3,_7),3_ + 0.13693750000000002 Q_OPV,Sanofi,(3,_7),1_ + 0.13419875 Q_OPV,Sanofi,(3,_7),2_ + 0.13009062500000002 Q_OPV,Sanofi,(3,_7),3_ + 4.7 Q_Hexa,Sanofi,(3,_7),1_ + 4.606 Q_Hexa,Sanofi,(3,_7),2_ + 4.465 Q_Hexa,Sanofi,(3,_7),3_ - 1 N_Sanofi,(3,_7)_ >= 0
c990: -4.2162292247395897e8 W_Sanofi,(3,_7)_ - 1 Y_tilde_Sanofi,3_ + 1 N_Sanofi,(3,_7)_ >= -4.2162292247395897e8
c991: 1.9208333333333334 Q_IPV,Sanofi,(4,_4),1_ + 1.8824166666666666 Q_IPV,Sanofi,(4,_4),2_ + 1.8247916666666666 Q_IPV,Sanofi,(4,_4),3_ + 0.13693750000000002 Q_OPV,Sanofi,(4,_4),1_ + 0.13419875 Q_OPV,Sanofi,(4,_4),2_ + 0.13009062500000002 Q_OPV,Sanofi,(4,_4),3_ + 4.6 Q_Hexa,Sanofi,(4,_4),1_ + 4.508 Q_Hexa,Sanofi,(4,_4),2_ + 4.369999999999999 Q_Hexa,Sanofi,(4,_4),3_ - 1 N_Sanofi,(4,_4)_ >= 0
c992: -8.432458449479176e7 W_Sanofi,(4,_4)_ - 1 Y_tilde_Sanofi,4_ + 1 N_Sanofi,(4,_4)_ >= -8.432458449479176e7
c993: 1.9208333333333334 Q_IPV,Sanofi,(4,_5),1_ + 1.8824166666666666 Q_IPV,Sanofi,(4,_5),2_ + 1.8247916666666666 Q_IPV,Sanofi,(4,_5),3_ + 0.13693750000000002 Q_OPV,Sanofi,(4,_5),1_ + 0.13419875 Q_OPV,Sanofi,(4,_5),2_ + 0.13009062500000002 Q_OPV,Sanofi,(4,_5),3_ + 4.6 Q_Hexa,Sanofi,(4,_5),1_ + 4.508 Q_Hexa,Sanofi,(4,_5),2_ + 4.369999999999999 Q_Hexa,Sanofi,(4,_5),3_ - 1 N_Sanofi,(4,_5)_ >= 0
c994: -1.6864916898958355e8 W_Sanofi,(4,_5)_ - 1 Y_tilde_Sanofi,4_ + 1 N_Sanofi,(4,_5)_ >= -1.6864916898958355e8
c995: 1.9208333333333334 Q_IPV,Sanofi,(4,_6),1_ + 1.8824166666666666 Q_IPV,Sanofi,(4,_6),2_ + 1.8247916666666666 Q_IPV,Sanofi,(4,_6),3_ + 0.13693750000000002 Q_OPV,Sanofi,(4,_6),1_ + 0.13419875 Q_OPV,Sanofi,(4,_6),2_ + 0.13009062500000002 Q_OPV,Sanofi,(4,_6),3_ + 4.6 Q_Hexa,Sanofi,(4,_6),1_ + 4.508 Q_Hexa,Sanofi,(4,_6),2_ + 4.369999999999999 Q_Hexa,Sanofi,(4,_6),3_ - 1 N_Sanofi,(4,_6)_ >= 0
c996: -2.5297375348437536e8 W_Sanofi,(4,_6)_ - 1 Y_tilde_Sanofi,4_ + 1 N_Sanofi,(4,_6)_ >= -2.5297375348437536e8
c997: 1.9208333333333334 Q_IPV,Sanofi,(4,_7),1_ + 1.8824166666666666 Q_IPV,Sanofi,(4,_7),2_ + 1.8247916666666666 Q_IPV,Sanofi,(4,_7),3_ + 0.13693750000000002 Q_OPV,Sanofi,(4,_7),1_ + 0.13419875 Q_OPV,Sanofi,(4,_7),2_ + 0.13009062500000002 Q_OPV,Sanofi,(4,_7),3_ + 4.6 Q_Hexa,Sanofi,(4,_7),1_ + 4.508 Q_Hexa,Sanofi,(4,_7),2_ + 4.369999999999999 Q_Hexa,Sanofi,(4,_7),3_ - 1 N_Sanofi,(4,_7)_ >= 0
c998: -3.3729833797916716e8 W_Sanofi,(4,_7)_ - 1 Y_tilde_Sanofi,4_ + 1 N_Sanofi,(4,_7)_ >= -3.3729833797916716e8
c999: 1.9208333333333334 Q_IPV,Sanofi,(4,_8),1_ + 1.8824166666666666 Q_IPV,Sanofi,(4,_8),2_ + 1.8247916666666666 Q_IPV,Sanofi,(4,_8),3_ + 0.13693750000000002 Q_OPV,Sanofi,(4,_8),1_ + 0.13419875 Q_OPV,Sanofi,(4,_8),2_ + 0.13009062500000002 Q_OPV,Sanofi,(4,_8),3_ + 4.6 Q_Hexa,Sanofi,(4,_8),1_ + 4.508 Q_Hexa,Sanofi,(4,_8),2_ + 4.369999999999999 Q_Hexa,Sanofi,(4,_8),3_ - 1 N_Sanofi,(4,_8)_ >= 0
c1000: -4.2162292247395897e8 W_Sanofi,(4,_8)_ - 1 Y_tilde_Sanofi,4_ + 1 N_Sanofi,(4,_8)_ >= -4.2162292247395897e8
c1001: 1.9208333333333334 Q_IPV,Sanofi,(5,_5),1_ + 1.8824166666666666 Q_IPV,Sanofi,(5,_5),2_ + 1.8247916666666666 Q_IPV,Sanofi,(5,_5),3_ + 0.13693750000000002 Q_OPV,Sanofi,(5,_5),1_ + 0.13419875 Q_OPV,Sanofi,(5,_5),2_ + 0.13009062500000002 Q_OPV,Sanofi,(5,_5),3_ + 4.65 Q_Hexa,Sanofi,(5,_5),1_ + 4.557 Q_Hexa,Sanofi,(5,_5),2_ + 4.4175 Q_Hexa,Sanofi,(5,_5),3_ - 1 N_Sanofi,(5,_5)_ >= 0
c1002: -8.432458449479176e7 W_Sanofi,(5,_5)_ - 1 Y_tilde_Sanofi,5_ + 1 N_Sanofi,(5,_5)_ >= -8.432458449479176e7
c1003: 1.9208333333333334 Q_IPV,Sanofi,(5,_6),1_ + 1.8824166666666666 Q_IPV,Sanofi,(5,_6),2_ + 1.8247916666666666 Q_IPV,Sanofi,(5,_6),3_ + 0.13693750000000002 Q_OPV,Sanofi,(5,_6),1_ + 0.13419875 Q_OPV,Sanofi,(5,_6),2_ + 0.13009062500000002 Q_OPV,Sanofi,(5,_6),3_ + 4.65 Q_Hexa,Sanofi,(5,_6),1_ + 4.557 Q_Hexa,Sanofi,(5,_6),2_ + 4.4175 Q_Hexa,Sanofi,(5,_6),3_ - 1 N_Sanofi,(5,_6)_ >= 0
c1004: -1.6864916898958355e8 W_Sanofi,(5,_6)_ - 1 Y_tilde_Sanofi,5_ + 1 N_Sanofi,(5,_6)_ >= -1.6864916898958355e8
c1005: 1.9208333333333334 Q_IPV,Sanofi,(5,_7),1_ + 1.8824166666666666 Q_IPV,Sanofi,(5,_7),2_ + 1.8247916666666666 Q_IPV,Sanofi,(5,_7),3_ + 0.13693750000000002 Q_OPV,Sanofi,(5,_7),1_ + 0.13419875 Q_OPV,Sanofi,(5,_7),2_ + 0.13009062500000002 Q_OPV,Sanofi,(5,_7),3_ + 4.65 Q_Hexa,Sanofi,(5,_7),1_ + 4.557 Q_Hexa,Sanofi,(5,_7),2_ + 4.4175 Q_Hexa,Sanofi,(5,_7),3_ - 1 N_Sanofi,(5,_7)_ >= 0
c1006: -2.5297375348437536e8 W_Sanofi,(5,_7)_ - 1 Y_tilde_Sanofi,5_ + 1 N_Sanofi,(5,_7)_ >= -2.5297375348437536e8
c1007: 1.9208333333333334 Q_IPV,Sanofi,(5,_8),1_ + 1.8824166666666666 Q_IPV,Sanofi,(5,_8),2_ + 1.8247916666666666 Q_IPV,Sanofi,(5,_8),3_ + 0.13693750000000002 Q_OPV,Sanofi,(5,_8),1_ + 0.13419875 Q_OPV,Sanofi,(5,_8),2_ + 0.13009062500000002 Q_OPV,Sanofi,(5,_8),3_ + 4.65 Q_Hexa,Sanofi,(5,_8),1_ + 4.557 Q_Hexa,Sanofi,(5,_8),2_ + 4.4175 Q_Hexa,Sanofi,(5,_8),3_ - 1 N_Sanofi,(5,_8)_ >= 0
c1008: -3.3729833797916716e8 W_Sanofi,(5,_8)_ - 1 Y_tilde_Sanofi,5_ + 1 N_Sanofi,(5,_8)_ >= -3.3729833797916716e8
c1009: 1.9208333333333334 Q_IPV,Sanofi,(5,_9),1_ + 1.8824166666666666 Q_IPV,Sanofi,(5,_9),2_ + 1.8247916666666666 Q_IPV,Sanofi,(5,_9),3_ + 0.13693750000000002 Q_OPV,Sanofi,(5,_9),1_ + 0.13419875 Q_OPV,Sanofi,(5,_9),2_ + 0.13009062500000002 Q_OPV,Sanofi,(5,_9),3_ + 4.65 Q_Hexa,Sanofi,(5,_9),1_ + 4.557 Q_Hexa,Sanofi,(5,_9),2_ + 4.4175 Q_Hexa,Sanofi,(5,_9),3_ - 1 N_Sanofi,(5,_9)_ >= 0
c1010: -4.2162292247395897e8 W_Sanofi,(5,_9)_ - 1 Y_tilde_Sanofi,5_ + 1 N_Sanofi,(5,_9)_ >= -4.2162292247395897e8
c1011: 1.9208333333333334 Q_IPV,Sanofi,(6,_6),1_ + 1.8824166666666666 Q_IPV,Sanofi,(6,_6),2_ + 1.8247916666666666 Q_IPV,Sanofi,(6,_6),3_ + 0.13693750000000002 Q_OPV,Sanofi,(6,_6),1_ + 0.13419875 Q_OPV,Sanofi,(6,_6),2_ + 0.13009062500000002 Q_OPV,Sanofi,(6,_6),3_ + 4.625 Q_Hexa,Sanofi,(6,_6),1_ + 4.5325 Q_Hexa,Sanofi,(6,_6),2_ + 4.39375 Q_Hexa,Sanofi,(6,_6),3_ - 1 N_Sanofi,(6,_6)_ >= 0
c1012: -8.432458449479176e7 W_Sanofi,(6,_6)_ - 1 Y_tilde_Sanofi,6_ + 1 N_Sanofi,(6,_6)_ >= -8.432458449479176e7
c1013: 1.9208333333333334 Q_IPV,Sanofi,(6,_7),1_ + 1.8824166666666666 Q_IPV,Sanofi,(6,_7),2_ + 1.8247916666666666 Q_IPV,Sanofi,(6,_7),3_ + 0.13693750000000002 Q_OPV,Sanofi,(6,_7),1_ + 0.13419875 Q_OPV,Sanofi,(6,_7),2_ + 0.13009062500000002 Q_OPV,Sanofi,(6,_7),3_ + 4.625 Q_Hexa,Sanofi,(6,_7),1_ + 4.5325 Q_Hexa,Sanofi,(6,_7),2_ + 4.39375 Q_Hexa,Sanofi,(6,_7),3_ - 1 N_Sanofi,(6,_7)_ >= 0
c1014: -1.6864916898958355e8 W_Sanofi,(6,_7)_ - 1 Y_tilde_Sanofi,6_ + 1 N_Sanofi,(6,_7)_ >= -1.6864916898958355e8
c1015: 1.9208333333333334 Q_IPV,Sanofi,(6,_8),1_ + 1.8824166666666666 Q_IPV,Sanofi,(6,_8),2_ + 1.8247916666666666 Q_IPV,Sanofi,(6,_8),3_ + 0.13693750000000002 Q_OPV,Sanofi,(6,_8),1_ + 0.13419875 Q_OPV,Sanofi,(6,_8),2_ + 0.13009062500000002 Q_OPV,Sanofi,(6,_8),3_ + 4.625 Q_Hexa,Sanofi,(6,_8),1_ + 4.5325 Q_Hexa,Sanofi,(6,_8),2_ + 4.39375 Q_Hexa,Sanofi,(6,_8),3_ - 1 N_Sanofi,(6,_8)_ >= 0
c1016: -2.5297375348437536e8 W_Sanofi,(6,_8)_ - 1 Y_tilde_Sanofi,6_ + 1 N_Sanofi,(6,_8)_ >= -2.5297375348437536e8
c1017: 1.9208333333333334 Q_IPV,Sanofi,(6,_9),1_ + 1.8824166666666666 Q_IPV,Sanofi,(6,_9),2_ + 1.8247916666666666 Q_IPV,Sanofi,(6,_9),3_ + 0.13693750000000002 Q_OPV,Sanofi,(6,_9),1_ + 0.13419875 Q_OPV,Sanofi,(6,_9),2_ + 0.13009062500000002 Q_OPV,Sanofi,(6,_9),3_ + 4.625 Q_Hexa,Sanofi,(6,_9),1_ + 4.5325 Q_Hexa,Sanofi,(6,_9),2_ + 4.39375 Q_Hexa,Sanofi,(6,_9),3_ - 1 N_Sanofi,(6,_9)_ >= 0
c1018: -3.3729833797916716e8 W_Sanofi,(6,_9)_ - 1 Y_tilde_Sanofi,6_ + 1 N_Sanofi,(6,_9)_ >= -3.3729833797916716e8
c1019: 1.9208333333333334 Q_IPV,Sanofi,(6,_10),1_ + 1.8824166666666666 Q_IPV,Sanofi,(6,_10),2_ + 1.8247916666666666 Q_IPV,Sanofi,(6,_10),3_ + 0.13693750000000002 Q_OPV,Sanofi,(6,_10),1_ + 0.13419875 Q_OPV,Sanofi,(6,_10),2_ + 0.13009062500000002 Q_OPV,Sanofi,(6,_10),3_ + 4.625 Q_Hexa,Sanofi,(6,_10),1_ + 4.5325 Q_Hexa,Sanofi,(6,_10),2_ + 4.39375 Q_Hexa,Sanofi,(6,_10),3_ - 1 N_Sanofi,(6,_10)_ >= 0
c1020: -4.2162292247395897e8 W_Sanofi,(6,_10)_ - 1 Y_tilde_Sanofi,6_ + 1 N_Sanofi,(6,_10)_ >= -4.2162292247395897e8
c1021: 1.9208333333333334 Q_IPV,Sanofi,(7,_7),1_ + 1.8824166666666666 Q_IPV,Sanofi,(7,_7),2_ + 1.8247916666666666 Q_IPV,Sanofi,(7,_7),3_ + 0.13693750000000002 Q_OPV,Sanofi,(7,_7),1_ + 0.13419875 Q_OPV,Sanofi,(7,_7),2_ + 0.13009062500000002 Q_OPV,Sanofi,(7,_7),3_ + 4.6375 Q_Hexa,Sanofi,(7,_7),1_ + 4.5447500000000005 Q_Hexa,Sanofi,(7,_7),2_ + 4.405625 Q_Hexa,Sanofi,(7,_7),3_ - 1 N_Sanofi,(7,_7)_ >= 0
c1022: -8.432458449479176e7 W_Sanofi,(7,_7)_ - 1 Y_tilde_Sanofi,7_ + 1 N_Sanofi,(7,_7)_ >= -8.432458449479176e7
c1023: 1.9208333333333334 Q_IPV,Sanofi,(7,_8),1_ + 1.8824166666666666 Q_IPV,Sanofi,(7,_8),2_ + 1.8247916666666666 Q_IPV,Sanofi,(7,_8),3_ + 0.13693750000000002 Q_OPV,Sanofi,(7,_8),1_ + 0.13419875 Q_OPV,Sanofi,(7,_8),2_ + 0.13009062500000002 Q_OPV,Sanofi,(7,_8),3_ + 4.6375 Q_Hexa,Sanofi,(7,_8),1_ + 4.5447500000000005 Q_Hexa,Sanofi,(7,_8),2_ + 4.405625 Q_Hexa,Sanofi,(7,_8),3_ - 1 N_Sanofi,(7,_8)_ >= 0
c1024: -1.6864916898958355e8 W_Sanofi,(7,_8)_ - 1 Y_tilde_Sanofi,7_ + 1 N_Sanofi,(7,_8)_ >= -1.6864916898958355e8
c1025: 1.9208333333333334 Q_IPV,Sanofi,(7,_9),1_ + 1.8824166666666666 Q_IPV,Sanofi,(7,_9),2_ + 1.8247916666666666 Q_IPV,Sanofi,(7,_9),3_ + 0.13693750000000002 Q_OPV,Sanofi,(7,_9),1_ + 0.13419875 Q_OPV,Sanofi,(7,_9),2_ + 0.13009062500000002 Q_OPV,Sanofi,(7,_9),3_ + 4.6375 Q_Hexa,Sanofi,(7,_9),1_ + 4.5447500000000005 Q_Hexa,Sanofi,(7,_9),2_ + 4.405625 Q_Hexa,Sanofi,(7,_9),3_ - 1 N_Sanofi,(7,_9)_ >= 0
c1026: -2.5297375348437536e8 W_Sanofi,(7,_9)_ - 1 Y_tilde_Sanofi,7_ + 1 N_Sanofi,(7,_9)_ >= -2.5297375348437536e8
c1027: 1.9208333333333334 Q_IPV,Sanofi,(7,_10),1_ + 1.8824166666666666 Q_IPV,Sanofi,(7,_10),2_ + 1.8247916666666666 Q_IPV,Sanofi,(7,_10),3_ + 0.13693750000000002 Q_OPV,Sanofi,(7,_10),1_ + 0.13419875 Q_OPV,Sanofi,(7,_10),2_ + 0.13009062500000002 Q_OPV,Sanofi,(7,_10),3_ + 4.6375 Q_Hexa,Sanofi,(7,_10),1_ + 4.5447500000000005 Q_Hexa,Sanofi,(7,_10),2_ + 4.405625 Q_Hexa,Sanofi,(7,_10),3_ - 1 N_Sanofi,(7,_10)_ >= 0
c1028: -3.3729833797916716e8 W_Sanofi,(7,_10)_ - 1 Y_tilde_Sanofi,7_ + 1 N_Sanofi,(7,_10)_ >= -3.3729833797916716e8
c1029: 1.9208333333333334 Q_IPV,Sanofi,(8,_8),1_ + 1.8824166666666666 Q_IPV,Sanofi,(8,_8),2_ + 1.8247916666666666 Q_IPV,Sanofi,(8,_8),3_ + 0.13693750000000002 Q_OPV,Sanofi,(8,_8),1_ + 0.13419875 Q_OPV,Sanofi,(8,_8),2_ + 0.13009062500000002 Q_OPV,Sanofi,(8,_8),3_ + 4.63125 Q_Hexa,Sanofi,(8,_8),1_ + 4.538625 Q_Hexa,Sanofi,(8,_8),2_ + 4.3996875 Q_Hexa,Sanofi,(8,_8),3_ - 1 N_Sanofi,(8,_8)_ >= 0
c1030: -8.432458449479176e7 W_Sanofi,(8,_8)_ - 1 Y_tilde_Sanofi,8_ + 1 N_Sanofi,(8,_8)_ >= -8.432458449479176e7
c1031: 1.9208333333333334 Q_IPV,Sanofi,(8,_9),1_ + 1.8824166666666666 Q_IPV,Sanofi,(8,_9),2_ + 1.8247916666666666 Q_IPV,Sanofi,(8,_9),3_ + 0.13693750000000002 Q_OPV,Sanofi,(8,_9),1_ + 0.13419875 Q_OPV,Sanofi,(8,_9),2_ + 0.13009062500000002 Q_OPV,Sanofi,(8,_9),3_ + 4.63125 Q_Hexa,Sanofi,(8,_9),1_ + 4.538625 Q_Hexa,Sanofi,(8,_9),2_ + 4.3996875 Q_Hexa,Sanofi,(8,_9),3_ - 1 N_Sanofi,(8,_9)_ >= 0
c1032: -1.6864916898958355e8 W_Sanofi,(8,_9)_ - 1 Y_tilde_Sanofi,8_ + 1 N_Sanofi,(8,_9)_ >= -1.6864916898958355e8
c1033: 1.9208333333333334 Q_IPV,Sanofi,(8,_10),1_ + 1.8824166666666666 Q_IPV,Sanofi,(8,_10),2_ + 1.8247916666666666 Q_IPV,Sanofi,(8,_10),3_ + 0.13693750000000002 Q_OPV,Sanofi,(8,_10),1_ + 0.13419875 Q_OPV,Sanofi,(8,_10),2_ + 0.13009062500000002 Q_OPV,Sanofi,(8,_10),3_ + 4.63125 Q_Hexa,Sanofi,(8,_10),1_ + 4.538625 Q_Hexa,Sanofi,(8,_10),2_ + 4.3996875 Q_Hexa,Sanofi,(8,_10),3_ - 1 N_Sanofi,(8,_10)_ >= 0
c1034: -2.5297375348437536e8 W_Sanofi,(8,_10)_ - 1 Y_tilde_Sanofi,8_ + 1 N_Sanofi,(8,_10)_ >= -2.5297375348437536e8
c1035: 1.9208333333333334 Q_IPV,Sanofi,(9,_9),1_ + 1.8824166666666666 Q_IPV,Sanofi,(9,_9),2_ + 1.8247916666666666 Q_IPV,Sanofi,(9,_9),3_ + 0.13693750000000002 Q_OPV,Sanofi,(9,_9),1_ + 0.13419875 Q_OPV,Sanofi,(9,_9),2_ + 0.13009062500000002 Q_OPV,Sanofi,(9,_9),3_ + 4.634375 Q_Hexa,Sanofi,(9,_9),1_ + 4.5416875 Q_Hexa,Sanofi,(9,_9),2_ + 4.40265625 Q_Hexa,Sanofi,(9,_9),3_ - 1 N_Sanofi,(9,_9)_ >= 0
c1036: -8.432458449479176e7 W_Sanofi,(9,_9)_ - 1 Y_tilde_Sanofi,9_ + 1 N_Sanofi,(9,_9)_ >= -8.432458449479176e7
c1037: 1.9208333333333334 Q_IPV,Sanofi,(9,_10),1_ + 1.8824166666666666 Q_IPV,Sanofi,(9,_10),2_ + 1.8247916666666666 Q_IPV,Sanofi,(9,_10),3_ + 0.13693750000000002 Q_OPV,Sanofi,(9,_10),1_ + 0.13419875 Q_OPV,Sanofi,(9,_10),2_ + 0.13009062500000002 Q_OPV,Sanofi,(9,_10),3_ + 4.634375 Q_Hexa,Sanofi,(9,_10),1_ + 4.5416875 Q_Hexa,Sanofi,(9,_10),2_ + 4.40265625 Q_Hexa,Sanofi,(9,_10),3_ - 1 N_Sanofi,(9,_10)_ >= 0
c1038: -1.6864916898958355e8 W_Sanofi,(9,_10)_ - 1 Y_tilde_Sanofi,9_ + 1 N_Sanofi,(9,_10)_ >= -1.6864916898958355e8
c1039: 1.9208333333333334 Q_IPV,Sanofi,(10,_10),1_ + 1.8824166666666666 Q_IPV,Sanofi,(10,_10),2_ + 1.8247916666666666 Q_IPV,Sanofi,(10,_10),3_ + 0.13693750000000002 Q_OPV,Sanofi,(10,_10),1_ + 0.13419875 Q_OPV,Sanofi,(10,_10),2_ + 0.13009062500000002 Q_OPV,Sanofi,(10,_10),3_ + 4.6328125 Q_Hexa,Sanofi,(10,_10),1_ + 4.54015625 Q_Hexa,Sanofi,(10,_10),2_ + 4.401171875 Q_Hexa,Sanofi,(10,_10),3_ - 1 N_Sanofi,(10,_10)_ >= 0
c1040: -8.432458449479176e7 W_Sanofi,(10,_10)_ - 1 Y_tilde_Sanofi,10_ + 1 N_Sanofi,(10,_10)_ >= -8.432458449479176e7
c1041: 0.321 Q_M,Serum_Institute,(1,_1),1_ + 0.31458 Q_M,Serum_Institute,(1,_1),2_ + 0.30495 Q_M,Serum_Institute,(1,_1),3_ + 0.7555000000000001 Q_MR,Serum_Institute,(1,_1),1_ + 0.74039 Q_MR,Serum_Institute,(1,_1),2_ + 0.7177250000000001 Q_MR,Serum_Institute,(1,_1),3_ + 3.207 Q_MMR,Serum_Institute,(1,_1),1_ + 3.1428599999999998 Q_MMR,Serum_Institute,(1,_1),2_ + 3.0466499999999996 Q_MMR,Serum_Institute,(1,_1),3_ + 0.07700000000000001 Q_TT,Serum_Institute,(1,_1),1_ + 0.07546000000000001 Q_TT,Serum_Institute,(1,_1),2_ + 0.07315 Q_TT,Serum_Institute,(1,_1),3_ + 0.42874999999999996 Q_HepB,Serum_Institute,(1,_1),1_ + 0.42017499999999997 Q_HepB,Serum_Institute,(1,_1),2_ + 0.40731249999999997 Q_HepB,Serum_Institute,(1,_1),3_ + 0.11800000000000001 Q_Hib,Serum_Institute,(1,_1),1_ + 0.11564 Q_Hib,Serum_Institute,(1,_1),2_ + 0.1121 Q_Hib,Serum_Institute,(1,_1),3_ + 0.13305 Q_OPV,Serum_Institute,(1,_1),1_ + 0.130389 Q_OPV,Serum_Institute,(1,_1),2_ + 0.1263975 Q_OPV,Serum_Institute,(1,_1),3_ + 0.10092499999999999 Q_Td,Serum_Institute,(1,_1),1_ + 0.09890649999999998 Q_Td,Serum_Institute,(1,_1),2_ + 0.09587874999999998 Q_Td,Serum_Institute,(1,_1),3_ + 0.177 Q_DTwP,Serum_Institute,(1,_1),1_ + 0.17345999999999998 Q_DTwP,Serum_Institute,(1,_1),2_ + 0.16815 Q_DTwP,Serum_Institute,(1,_1),3_ + 0.19 Q_DTwP_Hib,Serum_Institute,(1,_1),1_ + 0.1862 Q_DTwP_Hib,Serum_Institute,(1,_1),2_ + 0.1805 Q_DTwP_Hib,Serum_Institute,(1,_1),3_ + 0.9686999999999999 Q_Penta,Serum_Institute,(1,_1),1_ + 0.9493259999999999 Q_Penta,Serum_Institute,(1,_1),2_ + 0.9202649999999999 Q_Penta,Serum_Institute,(1,_1),3_ + 1.2642666666666666 Q_Rotavirus,Serum_Institute,(1,_1),1_ + 1.2389813333333333 Q_Rotavirus,Serum_Institute,(1,_1),2_ + 1.2010533333333333 Q_Rotavirus,Serum_Institute,(1,_1),3_ + 2.8666666666666667 Q_PCV,Serum_Institute,(1,_1),1_ + 2.8093333333333335 Q_PCV,Serum_Institute,(1,_1),2_ + 2.723333333333333 Q_PCV,Serum_Institute,(1,_1),3_ - 1 N_Serum_Institute,(1,_1)_ >= 0
c1042: -2.1563631030093148e8 W_Serum_Institute,(1,_1)_ - 1 Y_tilde_Serum_Institute,1_ + 1 N_Serum_Institute,(1,_1)_ >= -2.1563631030093148e8
c1043: 0.321 Q_M,Serum_Institute,(1,_2),1_ + 0.31458 Q_M,Serum_Institute,(1,_2),2_ + 0.30495 Q_M,Serum_Institute,(1,_2),3_ + 0.7555000000000001 Q_MR,Serum_Institute,(1,_2),1_ + 0.74039 Q_MR,Serum_Institute,(1,_2),2_ + 0.7177250000000001 Q_MR,Serum_Institute,(1,_2),3_ + 3.207 Q_MMR,Serum_Institute,(1,_2),1_ + 3.1428599999999998 Q_MMR,Serum_Institute,(1,_2),2_ + 3.0466499999999996 Q_MMR,Serum_Institute,(1,_2),3_ + 0.07700000000000001 Q_TT,Serum_Institute,(1,_2),1_ + 0.07546000000000001 Q_TT,Serum_Institute,(1,_2),2_ + 0.07315 Q_TT,Serum_Institute,(1,_2),3_ + 0.42874999999999996 Q_HepB,Serum_Institute,(1,_2),1_ + 0.42017499999999997 Q_HepB,Serum_Institute,(1,_2),2_ + 0.40731249999999997 Q_HepB,Serum_Institute,(1,_2),3_ + 0.11800000000000001 Q_Hib,Serum_Institute,(1,_2),1_ + 0.11564 Q_Hib,Serum_Institute,(1,_2),2_ + 0.1121 Q_Hib,Serum_Institute,(1,_2),3_ + 0.13305 Q_OPV,Serum_Institute,(1,_2),1_ + 0.130389 Q_OPV,Serum_Institute,(1,_2),2_ + 0.1263975 Q_OPV,Serum_Institute,(1,_2),3_ + 0.10092499999999999 Q_Td,Serum_Institute,(1,_2),1_ + 0.09890649999999998 Q_Td,Serum_Institute,(1,_2),2_ + 0.09587874999999998 Q_Td,Serum_Institute,(1,_2),3_ + 0.177 Q_DTwP,Serum_Institute,(1,_2),1_ + 0.17345999999999998 Q_DTwP,Serum_Institute,(1,_2),2_ + 0.16815 Q_DTwP,Serum_Institute,(1,_2),3_ + 0.19 Q_DTwP_Hib,Serum_Institute,(1,_2),1_ + 0.1862 Q_DTwP_Hib,Serum_Institute,(1,_2),2_ + 0.1805 Q_DTwP_Hib,Serum_Institute,(1,_2),3_ + 0.9686999999999999 Q_Penta,Serum_Institute,(1,_2),1_ + 0.9493259999999999 Q_Penta,Serum_Institute,(1,_2),2_ + 0.9202649999999999 Q_Penta,Serum_Institute,(1,_2),3_ + 1.2642666666666666 Q_Rotavirus,Serum_Institute,(1,_2),1_ + 1.2389813333333333 Q_Rotavirus,Serum_Institute,(1,_2),2_ + 1.2010533333333333 Q_Rotavirus,Serum_Institute,(1,_2),3_ + 2.8666666666666667 Q_PCV,Serum_Institute,(1,_2),1_ + 2.8093333333333335 Q_PCV,Serum_Institute,(1,_2),2_ + 2.723333333333333 Q_PCV,Serum_Institute,(1,_2),3_ - 1 N_Serum_Institute,(1,_2)_ >= 0
c1044: -4.312726206018629e8 W_Serum_Institute,(1,_2)_ - 1 Y_tilde_Serum_Institute,1_ + 1 N_Serum_Institute,(1,_2)_ >= -4.312726206018629e8
c1045: 0.321 Q_M,Serum_Institute,(1,_3),1_ + 0.31458 Q_M,Serum_Institute,(1,_3),2_ + 0.30495 Q_M,Serum_Institute,(1,_3),3_ + 0.7555000000000001 Q_MR,Serum_Institute,(1,_3),1_ + 0.74039 Q_MR,Serum_Institute,(1,_3),2_ + 0.7177250000000001 Q_MR,Serum_Institute,(1,_3),3_ + 3.207 Q_MMR,Serum_Institute,(1,_3),1_ + 3.1428599999999998 Q_MMR,Serum_Institute,(1,_3),2_ + 3.0466499999999996 Q_MMR,Serum_Institute,(1,_3),3_ + 0.07700000000000001 Q_TT,Serum_Institute,(1,_3),1_ + 0.07546000000000001 Q_TT,Serum_Institute,(1,_3),2_ + 0.07315 Q_TT,Serum_Institute,(1,_3),3_ + 0.42874999999999996 Q_HepB,Serum_Institute,(1,_3),1_ + 0.42017499999999997 Q_HepB,Serum_Institute,(1,_3),2_ + 0.40731249999999997 Q_HepB,Serum_Institute,(1,_3),3_ + 0.11800000000000001 Q_Hib,Serum_Institute,(1,_3),1_ + 0.11564 Q_Hib,Serum_Institute,(1,_3),2_ + 0.1121 Q_Hib,Serum_Institute,(1,_3),3_ + 0.13305 Q_OPV,Serum_Institute,(1,_3),1_ + 0.130389 Q_OPV,Serum_Institute,(1,_3),2_ + 0.1263975 Q_OPV,Serum_Institute,(1,_3),3_ + 0.10092499999999999 Q_Td,Serum_Institute,(1,_3),1_ + 0.09890649999999998 Q_Td,Serum_Institute,(1,_3),2_ + 0.09587874999999998 Q_Td,Serum_Institute,(1,_3),3_ + 0.177 Q_DTwP,Serum_Institute,(1,_3),1_ + 0.17345999999999998 Q_DTwP,Serum_Institute,(1,_3),2_ + 0.16815 Q_DTwP,Serum_Institute,(1,_3),3_ + 0.19 Q_DTwP_Hib,Serum_Institute,(1,_3),1_ + 0.1862 Q_DTwP_Hib,Serum_Institute,(1,_3),2_ + 0.1805 Q_DTwP_Hib,Serum_Institute,(1,_3),3_ + 0.9686999999999999 Q_Penta,Serum_Institute,(1,_3),1_ + 0.9493259999999999 Q_Penta,Serum_Institute,(1,_3),2_ + 0.9202649999999999 Q_Penta,Serum_Institute,(1,_3),3_ + 1.2642666666666666 Q_Rotavirus,Serum_Institute,(1,_3),1_ + 1.2389813333333333 Q_Rotavirus,Serum_Institute,(1,_3),2_ + 1.2010533333333333 Q_Rotavirus,Serum_Institute,(1,_3),3_ + 2.8666666666666667 Q_PCV,Serum_Institute,(1,_3),1_ + 2.8093333333333335 Q_PCV,Serum_Institute,(1,_3),2_ + 2.723333333333333 Q_PCV,Serum_Institute,(1,_3),3_ - 1 N_Serum_Institute,(1,_3)_ >= 0
c1046: -6.469089309027947e8 W_Serum_Institute,(1,_3)_ - 1 Y_tilde_Serum_Institute,1_ + 1 N_Serum_Institute,(1,_3)_ >= -6.469089309027947e8
c1047: 0.321 Q_M,Serum_Institute,(1,_4),1_ + 0.31458 Q_M,Serum_Institute,(1,_4),2_ + 0.30495 Q_M,Serum_Institute,(1,_4),3_ + 0.7555000000000001 Q_MR,Serum_Institute,(1,_4),1_ + 0.74039 Q_MR,Serum_Institute,(1,_4),2_ + 0.7177250000000001 Q_MR,Serum_Institute,(1,_4),3_ + 3.207 Q_MMR,Serum_Institute,(1,_4),1_ + 3.1428599999999998 Q_MMR,Serum_Institute,(1,_4),2_ + 3.0466499999999996 Q_MMR,Serum_Institute,(1,_4),3_ + 0.07700000000000001 Q_TT,Serum_Institute,(1,_4),1_ + 0.07546000000000001 Q_TT,Serum_Institute,(1,_4),2_ + 0.07315 Q_TT,Serum_Institute,(1,_4),3_ + 0.42874999999999996 Q_HepB,Serum_Institute,(1,_4),1_ + 0.42017499999999997 Q_HepB,Serum_Institute,(1,_4),2_ + 0.40731249999999997 Q_HepB,Serum_Institute,(1,_4),3_ + 0.11800000000000001 Q_Hib,Serum_Institute,(1,_4),1_ + 0.11564 Q_Hib,Serum_Institute,(1,_4),2_ + 0.1121 Q_Hib,Serum_Institute,(1,_4),3_ + 0.13305 Q_OPV,Serum_Institute,(1,_4),1_ + 0.130389 Q_OPV,Serum_Institute,(1,_4),2_ + 0.1263975 Q_OPV,Serum_Institute,(1,_4),3_ + 0.10092499999999999 Q_Td,Serum_Institute,(1,_4),1_ + 0.09890649999999998 Q_Td,Serum_Institute,(1,_4),2_ + 0.09587874999999998 Q_Td,Serum_Institute,(1,_4),3_ + 0.177 Q_DTwP,Serum_Institute,(1,_4),1_ + 0.17345999999999998 Q_DTwP,Serum_Institute,(1,_4),2_ + 0.16815 Q_DTwP,Serum_Institute,(1,_4),3_ + 0.19 Q_DTwP_Hib,Serum_Institute,(1,_4),1_ + 0.1862 Q_DTwP_Hib,Serum_Institute,(1,_4),2_ + 0.1805 Q_DTwP_Hib,Serum_Institute,(1,_4),3_ + 0.9686999999999999 Q_Penta,Serum_Institute,(1,_4),1_ + 0.9493259999999999 Q_Penta,Serum_Institute,(1,_4),2_ + 0.9202649999999999 Q_Penta,Serum_Institute,(1,_4),3_ + 1.2642666666666666 Q_Rotavirus,Serum_Institute,(1,_4),1_ + 1.2389813333333333 Q_Rotavirus,Serum_Institute,(1,_4),2_ + 1.2010533333333333 Q_Rotavirus,Serum_Institute,(1,_4),3_ + 2.8666666666666667 Q_PCV,Serum_Institute,(1,_4),1_ + 2.8093333333333335 Q_PCV,Serum_Institute,(1,_4),2_ + 2.723333333333333 Q_PCV,Serum_Institute,(1,_4),3_ - 1 N_Serum_Institute,(1,_4)_ >= 0
c1048: -8.625452412037269e8 W_Serum_Institute,(1,_4)_ - 1 Y_tilde_Serum_Institute,1_ + 1 N_Serum_Institute,(1,_4)_ >= -8.625452412037269e8
c1049: 0.321 Q_M,Serum_Institute,(1,_5),1_ + 0.31458 Q_M,Serum_Institute,(1,_5),2_ + 0.30495 Q_M,Serum_Institute,(1,_5),3_ + 0.7555000000000001 Q_MR,Serum_Institute,(1,_5),1_ + 0.74039 Q_MR,Serum_Institute,(1,_5),2_ + 0.7177250000000001 Q_MR,Serum_Institute,(1,_5),3_ + 3.207 Q_MMR,Serum_Institute,(1,_5),1_ + 3.1428599999999998 Q_MMR,Serum_Institute,(1,_5),2_ + 3.0466499999999996 Q_MMR,Serum_Institute,(1,_5),3_ + 0.07700000000000001 Q_TT,Serum_Institute,(1,_5),1_ + 0.07546000000000001 Q_TT,Serum_Institute,(1,_5),2_ + 0.07315 Q_TT,Serum_Institute,(1,_5),3_ + 0.42874999999999996 Q_HepB,Serum_Institute,(1,_5),1_ + 0.42017499999999997 Q_HepB,Serum_Institute,(1,_5),2_ + 0.40731249999999997 Q_HepB,Serum_Institute,(1,_5),3_ + 0.11800000000000001 Q_Hib,Serum_Institute,(1,_5),1_ + 0.11564 Q_Hib,Serum_Institute,(1,_5),2_ + 0.1121 Q_Hib,Serum_Institute,(1,_5),3_ + 0.13305 Q_OPV,Serum_Institute,(1,_5),1_ + 0.130389 Q_OPV,Serum_Institute,(1,_5),2_ + 0.1263975 Q_OPV,Serum_Institute,(1,_5),3_ + 0.10092499999999999 Q_Td,Serum_Institute,(1,_5),1_ + 0.09890649999999998 Q_Td,Serum_Institute,(1,_5),2_ + 0.09587874999999998 Q_Td,Serum_Institute,(1,_5),3_ + 0.177 Q_DTwP,Serum_Institute,(1,_5),1_ + 0.17345999999999998 Q_DTwP,Serum_Institute,(1,_5),2_ + 0.16815 Q_DTwP,Serum_Institute,(1,_5),3_ + 0.19 Q_DTwP_Hib,Serum_Institute,(1,_5),1_ + 0.1862 Q_DTwP_Hib,Serum_Institute,(1,_5),2_ + 0.1805 Q_DTwP_Hib,Serum_Institute,(1,_5),3_ + 0.9686999999999999 Q_Penta,Serum_Institute,(1,_5),1_ + 0.9493259999999999 Q_Penta,Serum_Institute,(1,_5),2_ + 0.9202649999999999 Q_Penta,Serum_Institute,(1,_5),3_ + 1.2642666666666666 Q_Rotavirus,Serum_Institute,(1,_5),1_ + 1.2389813333333333 Q_Rotavirus,Serum_Institute,(1,_5),2_ + 1.2010533333333333 Q_Rotavirus,Serum_Institute,(1,_5),3_ + 2.8666666666666667 Q_PCV,Serum_Institute,(1,_5),1_ + 2.8093333333333335 Q_PCV,Serum_Institute,(1,_5),2_ + 2.723333333333333 Q_PCV,Serum_Institute,(1,_5),3_ - 1 N_Serum_Institute,(1,_5)_ >= 0
c1050: -1.078181551504659e9 W_Serum_Institute,(1,_5)_ - 1 Y_tilde_Serum_Institute,1_ + 1 N_Serum_Institute,(1,_5)_ >= -1.078181551504659e9
c1051: 0.34525 Q_M,Serum_Institute,(2,_2),1_ + 0.338345 Q_M,Serum_Institute,(2,_2),2_ + 0.3279875 Q_M,Serum_Institute,(2,_2),3_ + 0.85575 Q_MR,Serum_Institute,(2,_2),1_ + 0.838635 Q_MR,Serum_Institute,(2,_2),2_ + 0.8129624999999999 Q_MR,Serum_Institute,(2,_2),3_ + 3.303166666666667 Q_MMR,Serum_Institute,(2,_2),1_ + 3.237103333333333 Q_MMR,Serum_Institute,(2,_2),2_ + 3.1380083333333335 Q_MMR,Serum_Institute,(2,_2),3_ + 0.07762500000000001 Q_TT,Serum_Institute,(2,_2),1_ + 0.07607250000000002 Q_TT,Serum_Institute,(2,_2),2_ + 0.07374375000000001 Q_TT,Serum_Institute,(2,_2),3_ + 0.42874999999999996 Q_HepB,Serum_Institute,(2,_2),1_ + 0.42017499999999997 Q_HepB,Serum_Institute,(2,_2),2_ + 0.40731249999999997 Q_HepB,Serum_Institute,(2,_2),3_ + 0.11800000000000001 Q_Hib,Serum_Institute,(2,_2),1_ + 0.11564 Q_Hib,Serum_Institute,(2,_2),2_ + 0.1121 Q_Hib,Serum_Institute,(2,_2),3_ + 0.13693750000000002 Q_OPV,Serum_Institute,(2,_2),1_ + 0.13419875 Q_OPV,Serum_Institute,(2,_2),2_ + 0.13009062500000002 Q_OPV,Serum_Institute,(2,_2),3_ + 0.10217499999999999 Q_Td,Serum_Institute,(2,_2),1_ + 0.10013149999999998 Q_Td,Serum_Institute,(2,_2),2_ + 0.09706624999999998 Q_Td,Serum_Institute,(2,_2),3_ + 0.177 Q_DTwP,Serum_Institute,(2,_2),1_ + 0.17345999999999998 Q_DTwP,Serum_Institute,(2,_2),2_ + 0.16815 Q_DTwP,Serum_Institute,(2,_2),3_ + 0.19 Q_DTwP_Hib,Serum_Institute,(2,_2),1_ + 0.1862 Q_DTwP_Hib,Serum_Institute,(2,_2),2_ + 0.1805 Q_DTwP_Hib,Serum_Institute,(2,_2),3_ + 0.9686999999999999 Q_Penta,Serum_Institute,(2,_2),1_ + 0.9493259999999999 Q_Penta,Serum_Institute,(2,_2),2_ + 0.9202649999999999 Q_Penta,Serum_Institute,(2,_2),3_ + 1.3535000000000001 Q_Rotavirus,Serum_Institute,(2,_2),1_ + 1.3264300000000002 Q_Rotavirus,Serum_Institute,(2,_2),2_ + 1.285825 Q_Rotavirus,Serum_Institute,(2,_2),3_ + 2.8666666666666667 Q_PCV,Serum_Institute,(2,_2),1_ + 2.8093333333333335 Q_PCV,Serum_Institute,(2,_2),2_ + 2.723333333333333 Q_PCV,Serum_Institute,(2,_2),3_ - 1 N_Serum_Institute,(2,_2)_ >= 0
c1052: -2.1563631030093148e8 W_Serum_Institute,(2,_2)_ - 1 Y_tilde_Serum_Institute,2_ + 1 N_Serum_Institute,(2,_2)_ >= -2.1563631030093148e8
c1053: 0.34525 Q_M,Serum_Institute,(2,_3),1_ + 0.338345 Q_M,Serum_Institute,(2,_3),2_ + 0.3279875 Q_M,Serum_Institute,(2,_3),3_ + 0.85575 Q_MR,Serum_Institute,(2,_3),1_ + 0.838635 Q_MR,Serum_Institute,(2,_3),2_ + 0.8129624999999999 Q_MR,Serum_Institute,(2,_3),3_ + 3.303166666666667 Q_MMR,Serum_Institute,(2,_3),1_ + 3.237103333333333 Q_MMR,Serum_Institute,(2,_3),2_ + 3.1380083333333335 Q_MMR,Serum_Institute,(2,_3),3_ + 0.07762500000000001 Q_TT,Serum_Institute,(2,_3),1_ + 0.07607250000000002 Q_TT,Serum_Institute,(2,_3),2_ + 0.07374375000000001 Q_TT,Serum_Institute,(2,_3),3_ + 0.42874999999999996 Q_HepB,Serum_Institute,(2,_3),1_ + 0.42017499999999997 Q_HepB,Serum_Institute,(2,_3),2_ + 0.40731249999999997 Q_HepB,Serum_Institute,(2,_3),3_ + 0.11800000000000001 Q_Hib,Serum_Institute,(2,_3),1_ + 0.11564 Q_Hib,Serum_Institute,(2,_3),2_ + 0.1121 Q_Hib,Serum_Institute,(2,_3),3_ + 0.13693750000000002 Q_OPV,Serum_Institute,(2,_3),1_ + 0.13419875 Q_OPV,Serum_Institute,(2,_3),2_ + 0.13009062500000002 Q_OPV,Serum_Institute,(2,_3),3_ + 0.10217499999999999 Q_Td,Serum_Institute,(2,_3),1_ + 0.10013149999999998 Q_Td,Serum_Institute,(2,_3),2_ + 0.09706624999999998 Q_Td,Serum_Institute,(2,_3),3_ + 0.177 Q_DTwP,Serum_Institute,(2,_3),1_ + 0.17345999999999998 Q_DTwP,Serum_Institute,(2,_3),2_ + 0.16815 Q_DTwP,Serum_Institute,(2,_3),3_ + 0.19 Q_DTwP_Hib,Serum_Institute,(2,_3),1_ + 0.1862 Q_DTwP_Hib,Serum_Institute,(2,_3),2_ + 0.1805 Q_DTwP_Hib,Serum_Institute,(2,_3),3_ + 0.9686999999999999 Q_Penta,Serum_Institute,(2,_3),1_ + 0.9493259999999999 Q_Penta,Serum_Institute,(2,_3),2_ + 0.9202649999999999 Q_Penta,Serum_Institute,(2,_3),3_ + 1.3535000000000001 Q_Rotavirus,Serum_Institute,(2,_3),1_ + 1.3264300000000002 Q_Rotavirus,Serum_Institute,(2,_3),2_ + 1.285825 Q_Rotavirus,Serum_Institute,(2,_3),3_ + 2.8666666666666667 Q_PCV,Serum_Institute,(2,_3),1_ + 2.8093333333333335 Q_PCV,Serum_Institute,(2,_3),2_ + 2.723333333333333 Q_PCV,Serum_Institute,(2,_3),3_ - 1 N_Serum_Institute,(2,_3)_ >= 0
c1054: -4.312726206018629e8 W_Serum_Institute,(2,_3)_ - 1 Y_tilde_Serum_Institute,2_ + 1 N_Serum_Institute,(2,_3)_ >= -4.312726206018629e8
c1055: 0.34525 Q_M,Serum_Institute,(2,_4),1_ + 0.338345 Q_M,Serum_Institute,(2,_4),2_ + 0.3279875 Q_M,Serum_Institute,(2,_4),3_ + 0.85575 Q_MR,Serum_Institute,(2,_4),1_ + 0.838635 Q_MR,Serum_Institute,(2,_4),2_ + 0.8129624999999999 Q_MR,Serum_Institute,(2,_4),3_ + 3.303166666666667 Q_MMR,Serum_Institute,(2,_4),1_ + 3.237103333333333 Q_MMR,Serum_Institute,(2,_4),2_ + 3.1380083333333335 Q_MMR,Serum_Institute,(2,_4),3_ + 0.07762500000000001 Q_TT,Serum_Institute,(2,_4),1_ + 0.07607250000000002 Q_TT,Serum_Institute,(2,_4),2_ + 0.07374375000000001 Q_TT,Serum_Institute,(2,_4),3_ + 0.42874999999999996 Q_HepB,Serum_Institute,(2,_4),1_ + 0.42017499999999997 Q_HepB,Serum_Institute,(2,_4),2_ + 0.40731249999999997 Q_HepB,Serum_Institute,(2,_4),3_ + 0.11800000000000001 Q_Hib,Serum_Institute,(2,_4),1_ + 0.11564 Q_Hib,Serum_Institute,(2,_4),2_ + 0.1121 Q_Hib,Serum_Institute,(2,_4),3_ + 0.13693750000000002 Q_OPV,Serum_Institute,(2,_4),1_ + 0.13419875 Q_OPV,Serum_Institute,(2,_4),2_ + 0.13009062500000002 Q_OPV,Serum_Institute,(2,_4),3_ + 0.10217499999999999 Q_Td,Serum_Institute,(2,_4),1_ + 0.10013149999999998 Q_Td,Serum_Institute,(2,_4),2_ + 0.09706624999999998 Q_Td,Serum_Institute,(2,_4),3_ + 0.177 Q_DTwP,Serum_Institute,(2,_4),1_ + 0.17345999999999998 Q_DTwP,Serum_Institute,(2,_4),2_ + 0.16815 Q_DTwP,Serum_Institute,(2,_4),3_ + 0.19 Q_DTwP_Hib,Serum_Institute,(2,_4),1_ + 0.1862 Q_DTwP_Hib,Serum_Institute,(2,_4),2_ + 0.1805 Q_DTwP_Hib,Serum_Institute,(2,_4),3_ + 0.9686999999999999 Q_Penta,Serum_Institute,(2,_4),1_ + 0.9493259999999999 Q_Penta,Serum_Institute,(2,_4),2_ + 0.9202649999999999 Q_Penta,Serum_Institute,(2,_4),3_ + 1.3535000000000001 Q_Rotavirus,Serum_Institute,(2,_4),1_ + 1.3264300000000002 Q_Rotavirus,Serum_Institute,(2,_4),2_ + 1.285825 Q_Rotavirus,Serum_Institute,(2,_4),3_ + 2.8666666666666667 Q_PCV,Serum_Institute,(2,_4),1_ + 2.8093333333333335 Q_PCV,Serum_Institute,(2,_4),2_ + 2.723333333333333 Q_PCV,Serum_Institute,(2,_4),3_ - 1 N_Serum_Institute,(2,_4)_ >= 0
c1056: -6.469089309027947e8 W_Serum_Institute,(2,_4)_ - 1 Y_tilde_Serum_Institute,2_ + 1 N_Serum_Institute,(2,_4)_ >= -6.469089309027947e8
c1057: 0.34525 Q_M,Serum_Institute,(2,_5),1_ + 0.338345 Q_M,Serum_Institute,(2,_5),2_ + 0.3279875 Q_M,Serum_Institute,(2,_5),3_ + 0.85575 Q_MR,Serum_Institute,(2,_5),1_ + 0.838635 Q_MR,Serum_Institute,(2,_5),2_ + 0.8129624999999999 Q_MR,Serum_Institute,(2,_5),3_ + 3.303166666666667 Q_MMR,Serum_Institute,(2,_5),1_ + 3.237103333333333 Q_MMR,Serum_Institute,(2,_5),2_ + 3.1380083333333335 Q_MMR,Serum_Institute,(2,_5),3_ + 0.07762500000000001 Q_TT,Serum_Institute,(2,_5),1_ + 0.07607250000000002 Q_TT,Serum_Institute,(2,_5),2_ + 0.07374375000000001 Q_TT,Serum_Institute,(2,_5),3_ + 0.42874999999999996 Q_HepB,Serum_Institute,(2,_5),1_ + 0.42017499999999997 Q_HepB,Serum_Institute,(2,_5),2_ + 0.40731249999999997 Q_HepB,Serum_Institute,(2,_5),3_ + 0.11800000000000001 Q_Hib,Serum_Institute,(2,_5),1_ + 0.11564 Q_Hib,Serum_Institute,(2,_5),2_ + 0.1121 Q_Hib,Serum_Institute,(2,_5),3_ + 0.13693750000000002 Q_OPV,Serum_Institute,(2,_5),1_ + 0.13419875 Q_OPV,Serum_Institute,(2,_5),2_ + 0.13009062500000002 Q_OPV,Serum_Institute,(2,_5),3_ + 0.10217499999999999 Q_Td,Serum_Institute,(2,_5),1_ + 0.10013149999999998 Q_Td,Serum_Institute,(2,_5),2_ + 0.09706624999999998 Q_Td,Serum_Institute,(2,_5),3_ + 0.177 Q_DTwP,Serum_Institute,(2,_5),1_ + 0.17345999999999998 Q_DTwP,Serum_Institute,(2,_5),2_ + 0.16815 Q_DTwP,Serum_Institute,(2,_5),3_ + 0.19 Q_DTwP_Hib,Serum_Institute,(2,_5),1_ + 0.1862 Q_DTwP_Hib,Serum_Institute,(2,_5),2_ + 0.1805 Q_DTwP_Hib,Serum_Institute,(2,_5),3_ + 0.9686999999999999 Q_Penta,Serum_Institute,(2,_5),1_ + 0.9493259999999999 Q_Penta,Serum_Institute,(2,_5),2_ + 0.9202649999999999 Q_Penta,Serum_Institute,(2,_5),3_ + 1.3535000000000001 Q_Rotavirus,Serum_Institute,(2,_5),1_ + 1.3264300000000002 Q_Rotavirus,Serum_Institute,(2,_5),2_ + 1.285825 Q_Rotavirus,Serum_Institute,(2,_5),3_ + 2.8666666666666667 Q_PCV,Serum_Institute,(2,_5),1_ + 2.8093333333333335 Q_PCV,Serum_Institute,(2,_5),2_ + 2.723333333333333 Q_PCV,Serum_Institute,(2,_5),3_ - 1 N_Serum_Institute,(2,_5)_ >= 0
c1058: -8.625452412037269e8 W_Serum_Institute,(2,_5)_ - 1 Y_tilde_Serum_Institute,2_ + 1 N_Serum_Institute,(2,_5)_ >= -8.625452412037269e8
c1059: 0.34525 Q_M,Serum_Institute,(2,_6),1_ + 0.338345 Q_M,Serum_Institute,(2,_6),2_ + 0.3279875 Q_M,Serum_Institute,(2,_6),3_ + 0.85575 Q_MR,Serum_Institute,(2,_6),1_ + 0.838635 Q_MR,Serum_Institute,(2,_6),2_ + 0.8129624999999999 Q_MR,Serum_Institute,(2,_6),3_ + 3.303166666666667 Q_MMR,Serum_Institute,(2,_6),1_ + 3.237103333333333 Q_MMR,Serum_Institute,(2,_6),2_ + 3.1380083333333335 Q_MMR,Serum_Institute,(2,_6),3_ + 0.07762500000000001 Q_TT,Serum_Institute,(2,_6),1_ + 0.07607250000000002 Q_TT,Serum_Institute,(2,_6),2_ + 0.07374375000000001 Q_TT,Serum_Institute,(2,_6),3_ + 0.42874999999999996 Q_HepB,Serum_Institute,(2,_6),1_ + 0.42017499999999997 Q_HepB,Serum_Institute,(2,_6),2_ + 0.40731249999999997 Q_HepB,Serum_Institute,(2,_6),3_ + 0.11800000000000001 Q_Hib,Serum_Institute,(2,_6),1_ + 0.11564 Q_Hib,Serum_Institute,(2,_6),2_ + 0.1121 Q_Hib,Serum_Institute,(2,_6),3_ + 0.13693750000000002 Q_OPV,Serum_Institute,(2,_6),1_ + 0.13419875 Q_OPV,Serum_Institute,(2,_6),2_ + 0.13009062500000002 Q_OPV,Serum_Institute,(2,_6),3_ + 0.10217499999999999 Q_Td,Serum_Institute,(2,_6),1_ + 0.10013149999999998 Q_Td,Serum_Institute,(2,_6),2_ + 0.09706624999999998 Q_Td,Serum_Institute,(2,_6),3_ + 0.177 Q_DTwP,Serum_Institute,(2,_6),1_ + 0.17345999999999998 Q_DTwP,Serum_Institute,(2,_6),2_ + 0.16815 Q_DTwP,Serum_Institute,(2,_6),3_ + 0.19 Q_DTwP_Hib,Serum_Institute,(2,_6),1_ + 0.1862 Q_DTwP_Hib,Serum_Institute,(2,_6),2_ + 0.1805 Q_DTwP_Hib,Serum_Institute,(2,_6),3_ + 0.9686999999999999 Q_Penta,Serum_Institute,(2,_6),1_ + 0.9493259999999999 Q_Penta,Serum_Institute,(2,_6),2_ + 0.9202649999999999 Q_Penta,Serum_Institute,(2,_6),3_ + 1.3535000000000001 Q_Rotavirus,Serum_Institute,(2,_6),1_ + 1.3264300000000002 Q_Rotavirus,Serum_Institute,(2,_6),2_ + 1.285825 Q_Rotavirus,Serum_Institute,(2,_6),3_ + 2.8666666666666667 Q_PCV,Serum_Institute,(2,_6),1_ + 2.8093333333333335 Q_PCV,Serum_Institute,(2,_6),2_ + 2.723333333333333 Q_PCV,Serum_Institute,(2,_6),3_ - 1 N_Serum_Institute,(2,_6)_ >= 0
c1060: -1.078181551504659e9 W_Serum_Institute,(2,_6)_ - 1 Y_tilde_Serum_Institute,2_ + 1 N_Serum_Institute,(2,_6)_ >= -1.078181551504659e9
c1061: 0.355 Q_M,Serum_Institute,(3,_3),1_ + 0.3479 Q_M,Serum_Institute,(3,_3),2_ + 0.33725 Q_M,Serum_Institute,(3,_3),3_ + 0.88 Q_MR,Serum_Institute,(3,_3),1_ + 0.8623999999999999 Q_MR,Serum_Institute,(3,_3),2_ + 0.836 Q_MR,Serum_Institute,(3,_3),3_ + 3.4091666666666667 Q_MMR,Serum_Institute,(3,_3),1_ + 3.3409833333333334 Q_MMR,Serum_Institute,(3,_3),2_ + 3.2387083333333333 Q_MMR,Serum_Institute,(3,_3),3_ + 0.07743749999999999 Q_TT,Serum_Institute,(3,_3),1_ + 0.07588874999999999 Q_TT,Serum_Institute,(3,_3),2_ + 0.073565625 Q_TT,Serum_Institute,(3,_3),3_ + 0.42874999999999996 Q_HepB,Serum_Institute,(3,_3),1_ + 0.42017499999999997 Q_HepB,Serum_Institute,(3,_3),2_ + 0.40731249999999997 Q_HepB,Serum_Institute,(3,_3),3_ + 0.11800000000000001 Q_Hib,Serum_Institute,(3,_3),1_ + 0.11564 Q_Hib,Serum_Institute,(3,_3),2_ + 0.1121 Q_Hib,Serum_Institute,(3,_3),3_ + 0.13693750000000002 Q_OPV,Serum_Institute,(3,_3),1_ + 0.13419875 Q_OPV,Serum_Institute,(3,_3),2_ + 0.13009062500000002 Q_OPV,Serum_Institute,(3,_3),3_ + 0.11737500000000001 Q_Td,Serum_Institute,(3,_3),1_ + 0.1150275 Q_Td,Serum_Institute,(3,_3),2_ + 0.11150625 Q_Td,Serum_Institute,(3,_3),3_ + 0.177 Q_DTwP,Serum_Institute,(3,_3),1_ + 0.17345999999999998 Q_DTwP,Serum_Institute,(3,_3),2_ + 0.16815 Q_DTwP,Serum_Institute,(3,_3),3_ + 0.19 Q_DTwP_Hib,Serum_Institute,(3,_3),1_ + 0.1862 Q_DTwP_Hib,Serum_Institute,(3,_3),2_ + 0.1805 Q_DTwP_Hib,Serum_Institute,(3,_3),3_ + 0.9880000000000001 Q_Penta,Serum_Institute,(3,_3),1_ + 0.9682400000000001 Q_Penta,Serum_Institute,(3,_3),2_ + 0.9386000000000001 Q_Penta,Serum_Institute,(3,_3),3_ + 1.3535000000000001 Q_Rotavirus,Serum_Institute,(3,_3),1_ + 1.3264300000000002 Q_Rotavirus,Serum_Institute,(3,_3),2_ + 1.285825 Q_Rotavirus,Serum_Institute,(3,_3),3_ + 2.7083333333333335 Q_PCV,Serum_Institute,(3,_3),1_ + 2.654166666666667 Q_PCV,Serum_Institute,(3,_3),2_ + 2.5729166666666665 Q_PCV,Serum_Institute,(3,_3),3_ - 1 N_Serum_Institute,(3,_3)_ >= 0
c1062: -2.1563631030093148e8 W_Serum_Institute,(3,_3)_ - 1 Y_tilde_Serum_Institute,3_ + 1 N_Serum_Institute,(3,_3)_ >= -2.1563631030093148e8
c1063: 0.355 Q_M,Serum_Institute,(3,_4),1_ + 0.3479 Q_M,Serum_Institute,(3,_4),2_ + 0.33725 Q_M,Serum_Institute,(3,_4),3_ + 0.88 Q_MR,Serum_Institute,(3,_4),1_ + 0.8623999999999999 Q_MR,Serum_Institute,(3,_4),2_ + 0.836 Q_MR,Serum_Institute,(3,_4),3_ + 3.4091666666666667 Q_MMR,Serum_Institute,(3,_4),1_ + 3.3409833333333334 Q_MMR,Serum_Institute,(3,_4),2_ + 3.2387083333333333 Q_MMR,Serum_Institute,(3,_4),3_ + 0.07743749999999999 Q_TT,Serum_Institute,(3,_4),1_ + 0.07588874999999999 Q_TT,Serum_Institute,(3,_4),2_ + 0.073565625 Q_TT,Serum_Institute,(3,_4),3_ + 0.42874999999999996 Q_HepB,Serum_Institute,(3,_4),1_ + 0.42017499999999997 Q_HepB,Serum_Institute,(3,_4),2_ + 0.40731249999999997 Q_HepB,Serum_Institute,(3,_4),3_ + 0.11800000000000001 Q_Hib,Serum_Institute,(3,_4),1_ + 0.11564 Q_Hib,Serum_Institute,(3,_4),2_ + 0.1121 Q_Hib,Serum_Institute,(3,_4),3_ + 0.13693750000000002 Q_OPV,Serum_Institute,(3,_4),1_ + 0.13419875 Q_OPV,Serum_Institute,(3,_4),2_ + 0.13009062500000002 Q_OPV,Serum_Institute,(3,_4),3_ + 0.11737500000000001 Q_Td,Serum_Institute,(3,_4),1_ + 0.1150275 Q_Td,Serum_Institute,(3,_4),2_ + 0.11150625 Q_Td,Serum_Institute,(3,_4),3_ + 0.177 Q_DTwP,Serum_Institute,(3,_4),1_ + 0.17345999999999998 Q_DTwP,Serum_Institute,(3,_4),2_ + 0.16815 Q_DTwP,Serum_Institute,(3,_4),3_ + 0.19 Q_DTwP_Hib,Serum_Institute,(3,_4),1_ + 0.1862 Q_DTwP_Hib,Serum_Institute,(3,_4),2_ + 0.1805 Q_DTwP_Hib,Serum_Institute,(3,_4),3_ + 0.9880000000000001 Q_Penta,Serum_Institute,(3,_4),1_ + 0.9682400000000001 Q_Penta,Serum_Institute,(3,_4),2_ + 0.9386000000000001 Q_Penta,Serum_Institute,(3,_4),3_ + 1.3535000000000001 Q_Rotavirus,Serum_Institute,(3,_4),1_ + 1.3264300000000002 Q_Rotavirus,Serum_Institute,(3,_4),2_ + 1.285825 Q_Rotavirus,Serum_Institute,(3,_4),3_ + 2.7083333333333335 Q_PCV,Serum_Institute,(3,_4),1_ + 2.654166666666667 Q_PCV,Serum_Institute,(3,_4),2_ + 2.5729166666666665 Q_PCV,Serum_Institute,(3,_4),3_ - 1 N_Serum_Institute,(3,_4)_ >= 0
c1064: -4.312726206018629e8 W_Serum_Institute,(3,_4)_ - 1 Y_tilde_Serum_Institute,3_ + 1 N_Serum_Institute,(3,_4)_ >= -4.312726206018629e8
c1065: 0.355 Q_M,Serum_Institute,(3,_5),1_ + 0.3479 Q_M,Serum_Institute,(3,_5),2_ + 0.33725 Q_M,Serum_Institute,(3,_5),3_ + 0.88 Q_MR,Serum_Institute,(3,_5),1_ + 0.8623999999999999 Q_MR,Serum_Institute,(3,_5),2_ + 0.836 Q_MR,Serum_Institute,(3,_5),3_ + 3.4091666666666667 Q_MMR,Serum_Institute,(3,_5),1_ + 3.3409833333333334 Q_MMR,Serum_Institute,(3,_5),2_ + 3.2387083333333333 Q_MMR,Serum_Institute,(3,_5),3_ + 0.07743749999999999 Q_TT,Serum_Institute,(3,_5),1_ + 0.07588874999999999 Q_TT,Serum_Institute,(3,_5),2_ + 0.073565625 Q_TT,Serum_Institute,(3,_5),3_ + 0.42874999999999996 Q_HepB,Serum_Institute,(3,_5),1_ + 0.42017499999999997 Q_HepB,Serum_Institute,(3,_5),2_ + 0.40731249999999997 Q_HepB,Serum_Institute,(3,_5),3_ + 0.11800000000000001 Q_Hib,Serum_Institute,(3,_5),1_ + 0.11564 Q_Hib,Serum_Institute,(3,_5),2_ + 0.1121 Q_Hib,Serum_Institute,(3,_5),3_ + 0.13693750000000002 Q_OPV,Serum_Institute,(3,_5),1_ + 0.13419875 Q_OPV,Serum_Institute,(3,_5),2_ + 0.13009062500000002 Q_OPV,Serum_Institute,(3,_5),3_ + 0.11737500000000001 Q_Td,Serum_Institute,(3,_5),1_ + 0.1150275 Q_Td,Serum_Institute,(3,_5),2_ + 0.11150625 Q_Td,Serum_Institute,(3,_5),3_ + 0.177 Q_DTwP,Serum_Institute,(3,_5),1_ + 0.17345999999999998 Q_DTwP,Serum_Institute,(3,_5),2_ + 0.16815 Q_DTwP,Serum_Institute,(3,_5),3_ + 0.19 Q_DTwP_Hib,Serum_Institute,(3,_5),1_ + 0.1862 Q_DTwP_Hib,Serum_Institute,(3,_5),2_ + 0.1805 Q_DTwP_Hib,Serum_Institute,(3,_5),3_ + 0.9880000000000001 Q_Penta,Serum_Institute,(3,_5),1_ + 0.9682400000000001 Q_Penta,Serum_Institute,(3,_5),2_ + 0.9386000000000001 Q_Penta,Serum_Institute,(3,_5),3_ + 1.3535000000000001 Q_Rotavirus,Serum_Institute,(3,_5),1_ + 1.3264300000000002 Q_Rotavirus,Serum_Institute,(3,_5),2_ + 1.285825 Q_Rotavirus,Serum_Institute,(3,_5),3_ + 2.7083333333333335 Q_PCV,Serum_Institute,(3,_5),1_ + 2.654166666666667 Q_PCV,Serum_Institute,(3,_5),2_ + 2.5729166666666665 Q_PCV,Serum_Institute,(3,_5),3_ - 1 N_Serum_Institute,(3,_5)_ >= 0
c1066: -6.469089309027947e8 W_Serum_Institute,(3,_5)_ - 1 Y_tilde_Serum_Institute,3_ + 1 N_Serum_Institute,(3,_5)_ >= -6.469089309027947e8
c1067: 0.355 Q_M,Serum_Institute,(3,_6),1_ + 0.3479 Q_M,Serum_Institute,(3,_6),2_ + 0.33725 Q_M,Serum_Institute,(3,_6),3_ + 0.88 Q_MR,Serum_Institute,(3,_6),1_ + 0.8623999999999999 Q_MR,Serum_Institute,(3,_6),2_ + 0.836 Q_MR,Serum_Institute,(3,_6),3_ + 3.4091666666666667 Q_MMR,Serum_Institute,(3,_6),1_ + 3.3409833333333334 Q_MMR,Serum_Institute,(3,_6),2_ + 3.2387083333333333 Q_MMR,Serum_Institute,(3,_6),3_ + 0.07743749999999999 Q_TT,Serum_Institute,(3,_6),1_ + 0.07588874999999999 Q_TT,Serum_Institute,(3,_6),2_ + 0.073565625 Q_TT,Serum_Institute,(3,_6),3_ + 0.42874999999999996 Q_HepB,Serum_Institute,(3,_6),1_ + 0.42017499999999997 Q_HepB,Serum_Institute,(3,_6),2_ + 0.40731249999999997 Q_HepB,Serum_Institute,(3,_6),3_ + 0.11800000000000001 Q_Hib,Serum_Institute,(3,_6),1_ + 0.11564 Q_Hib,Serum_Institute,(3,_6),2_ + 0.1121 Q_Hib,Serum_Institute,(3,_6),3_ + 0.13693750000000002 Q_OPV,Serum_Institute,(3,_6),1_ + 0.13419875 Q_OPV,Serum_Institute,(3,_6),2_ + 0.13009062500000002 Q_OPV,Serum_Institute,(3,_6),3_ + 0.11737500000000001 Q_Td,Serum_Institute,(3,_6),1_ + 0.1150275 Q_Td,Serum_Institute,(3,_6),2_ + 0.11150625 Q_Td,Serum_Institute,(3,_6),3_ + 0.177 Q_DTwP,Serum_Institute,(3,_6),1_ + 0.17345999999999998 Q_DTwP,Serum_Institute,(3,_6),2_ + 0.16815 Q_DTwP,Serum_Institute,(3,_6),3_ + 0.19 Q_DTwP_Hib,Serum_Institute,(3,_6),1_ + 0.1862 Q_DTwP_Hib,Serum_Institute,(3,_6),2_ + 0.1805 Q_DTwP_Hib,Serum_Institute,(3,_6),3_ + 0.9880000000000001 Q_Penta,Serum_Institute,(3,_6),1_ + 0.9682400000000001 Q_Penta,Serum_Institute,(3,_6),2_ + 0.9386000000000001 Q_Penta,Serum_Institute,(3,_6),3_ + 1.3535000000000001 Q_Rotavirus,Serum_Institute,(3,_6),1_ + 1.3264300000000002 Q_Rotavirus,Serum_Institute,(3,_6),2_ + 1.285825 Q_Rotavirus,Serum_Institute,(3,_6),3_ + 2.7083333333333335 Q_PCV,Serum_Institute,(3,_6),1_ + 2.654166666666667 Q_PCV,Serum_Institute,(3,_6),2_ + 2.5729166666666665 Q_PCV,Serum_Institute,(3,_6),3_ - 1 N_Serum_Institute,(3,_6)_ >= 0
c1068: -8.625452412037269e8 W_Serum_Institute,(3,_6)_ - 1 Y_tilde_Serum_Institute,3_ + 1 N_Serum_Institute,(3,_6)_ >= -8.625452412037269e8
c1069: 0.355 Q_M,Serum_Institute,(3,_7),1_ + 0.3479 Q_M,Serum_Institute,(3,_7),2_ + 0.33725 Q_M,Serum_Institute,(3,_7),3_ + 0.88 Q_MR,Serum_Institute,(3,_7),1_ + 0.8623999999999999 Q_MR,Serum_Institute,(3,_7),2_ + 0.836 Q_MR,Serum_Institute,(3,_7),3_ + 3.4091666666666667 Q_MMR,Serum_Institute,(3,_7),1_ + 3.3409833333333334 Q_MMR,Serum_Institute,(3,_7),2_ + 3.2387083333333333 Q_MMR,Serum_Institute,(3,_7),3_ + 0.07743749999999999 Q_TT,Serum_Institute,(3,_7),1_ + 0.07588874999999999 Q_TT,Serum_Institute,(3,_7),2_ + 0.073565625 Q_TT,Serum_Institute,(3,_7),3_ + 0.42874999999999996 Q_HepB,Serum_Institute,(3,_7),1_ + 0.42017499999999997 Q_HepB,Serum_Institute,(3,_7),2_ + 0.40731249999999997 Q_HepB,Serum_Institute,(3,_7),3_ + 0.11800000000000001 Q_Hib,Serum_Institute,(3,_7),1_ + 0.11564 Q_Hib,Serum_Institute,(3,_7),2_ + 0.1121 Q_Hib,Serum_Institute,(3,_7),3_ + 0.13693750000000002 Q_OPV,Serum_Institute,(3,_7),1_ + 0.13419875 Q_OPV,Serum_Institute,(3,_7),2_ + 0.13009062500000002 Q_OPV,Serum_Institute,(3,_7),3_ + 0.11737500000000001 Q_Td,Serum_Institute,(3,_7),1_ + 0.1150275 Q_Td,Serum_Institute,(3,_7),2_ + 0.11150625 Q_Td,Serum_Institute,(3,_7),3_ + 0.177 Q_DTwP,Serum_Institute,(3,_7),1_ + 0.17345999999999998 Q_DTwP,Serum_Institute,(3,_7),2_ + 0.16815 Q_DTwP,Serum_Institute,(3,_7),3_ + 0.19 Q_DTwP_Hib,Serum_Institute,(3,_7),1_ + 0.1862 Q_DTwP_Hib,Serum_Institute,(3,_7),2_ + 0.1805 Q_DTwP_Hib,Serum_Institute,(3,_7),3_ + 0.9880000000000001 Q_Penta,Serum_Institute,(3,_7),1_ + 0.9682400000000001 Q_Penta,Serum_Institute,(3,_7),2_ + 0.9386000000000001 Q_Penta,Serum_Institute,(3,_7),3_ + 1.3535000000000001 Q_Rotavirus,Serum_Institute,(3,_7),1_ + 1.3264300000000002 Q_Rotavirus,Serum_Institute,(3,_7),2_ + 1.285825 Q_Rotavirus,Serum_Institute,(3,_7),3_ + 2.7083333333333335 Q_PCV,Serum_Institute,(3,_7),1_ + 2.654166666666667 Q_PCV,Serum_Institute,(3,_7),2_ + 2.5729166666666665 Q_PCV,Serum_Institute,(3,_7),3_ - 1 N_Serum_Institute,(3,_7)_ >= 0
c1070: -1.078181551504659e9 W_Serum_Institute,(3,_7)_ - 1 Y_tilde_Serum_Institute,3_ + 1 N_Serum_Institute,(3,_7)_ >= -1.078181551504659e9
c1071: 0.350125 Q_M,Serum_Institute,(4,_4),1_ + 0.3431225 Q_M,Serum_Institute,(4,_4),2_ + 0.33261875 Q_M,Serum_Institute,(4,_4),3_ + 0.917875 Q_MR,Serum_Institute,(4,_4),1_ + 0.8995175 Q_MR,Serum_Institute,(4,_4),2_ + 0.8719812499999999 Q_MR,Serum_Institute,(4,_4),3_ + 3.3561666666666667 Q_MMR,Serum_Institute,(4,_4),1_ + 3.2890433333333333 Q_MMR,Serum_Institute,(4,_4),2_ + 3.1883583333333334 Q_MMR,Serum_Institute,(4,_4),3_ + 0.08521875 Q_TT,Serum_Institute,(4,_4),1_ + 0.08351437499999999 Q_TT,Serum_Institute,(4,_4),2_ + 0.08095781249999999 Q_TT,Serum_Institute,(4,_4),3_ + 0.42874999999999996 Q_HepB,Serum_Institute,(4,_4),1_ + 0.42017499999999997 Q_HepB,Serum_Institute,(4,_4),2_ + 0.40731249999999997 Q_HepB,Serum_Institute,(4,_4),3_ + 0.11800000000000001 Q_Hib,Serum_Institute,(4,_4),1_ + 0.11564 Q_Hib,Serum_Institute,(4,_4),2_ + 0.1121 Q_Hib,Serum_Institute,(4,_4),3_ + 0.13693750000000002 Q_OPV,Serum_Institute,(4,_4),1_ + 0.13419875 Q_OPV,Serum_Institute,(4,_4),2_ + 0.13009062500000002 Q_OPV,Serum_Institute,(4,_4),3_ + 0.1257625 Q_Td,Serum_Institute,(4,_4),1_ + 0.12324725 Q_Td,Serum_Institute,(4,_4),2_ + 0.119474375 Q_Td,Serum_Institute,(4,_4),3_ + 0.177 Q_DTwP,Serum_Institute,(4,_4),1_ + 0.17345999999999998 Q_DTwP,Serum_Institute,(4,_4),2_ + 0.16815 Q_DTwP,Serum_Institute,(4,_4),3_ + 0.19 Q_DTwP_Hib,Serum_Institute,(4,_4),1_ + 0.1862 Q_DTwP_Hib,Serum_Institute,(4,_4),2_ + 0.1805 Q_DTwP_Hib,Serum_Institute,(4,_4),3_ + 0.9880000000000001 Q_Penta,Serum_Institute,(4,_4),1_ + 0.9682400000000001 Q_Penta,Serum_Institute,(4,_4),2_ + 0.9386000000000001 Q_Penta,Serum_Institute,(4,_4),3_ + 1.3646111111111112 Q_Rotavirus,Serum_Institute,(4,_4),1_ + 1.337318888888889 Q_Rotavirus,Serum_Institute,(4,_4),2_ + 1.2963805555555556 Q_Rotavirus,Serum_Institute,(4,_4),3_ + 2.7875 Q_PCV,Serum_Institute,(4,_4),1_ + 2.73175 Q_PCV,Serum_Institute,(4,_4),2_ + 2.648125 Q_PCV,Serum_Institute,(4,_4),3_ - 1 N_Serum_Institute,(4,_4)_ >= 0
c1072: -2.1563631030093148e8 W_Serum_Institute,(4,_4)_ - 1 Y_tilde_Serum_Institute,4_ + 1 N_Serum_Institute,(4,_4)_ >= -2.1563631030093148e8
c1073: 0.350125 Q_M,Serum_Institute,(4,_5),1_ + 0.3431225 Q_M,Serum_Institute,(4,_5),2_ + 0.33261875 Q_M,Serum_Institute,(4,_5),3_ + 0.917875 Q_MR,Serum_Institute,(4,_5),1_ + 0.8995175 Q_MR,Serum_Institute,(4,_5),2_ + 0.8719812499999999 Q_MR,Serum_Institute,(4,_5),3_ + 3.3561666666666667 Q_MMR,Serum_Institute,(4,_5),1_ + 3.2890433333333333 Q_MMR,Serum_Institute,(4,_5),2_ + 3.1883583333333334 Q_MMR,Serum_Institute,(4,_5),3_ + 0.08521875 Q_TT,Serum_Institute,(4,_5),1_ + 0.08351437499999999 Q_TT,Serum_Institute,(4,_5),2_ + 0.08095781249999999 Q_TT,Serum_Institute,(4,_5),3_ + 0.42874999999999996 Q_HepB,Serum_Institute,(4,_5),1_ + 0.42017499999999997 Q_HepB,Serum_Institute,(4,_5),2_ + 0.40731249999999997 Q_HepB,Serum_Institute,(4,_5),3_ + 0.11800000000000001 Q_Hib,Serum_Institute,(4,_5),1_ + 0.11564 Q_Hib,Serum_Institute,(4,_5),2_ + 0.1121 Q_Hib,Serum_Institute,(4,_5),3_ + 0.13693750000000002 Q_OPV,Serum_Institute,(4,_5),1_ + 0.13419875 Q_OPV,Serum_Institute,(4,_5),2_ + 0.13009062500000002 Q_OPV,Serum_Institute,(4,_5),3_ + 0.1257625 Q_Td,Serum_Institute,(4,_5),1_ + 0.12324725 Q_Td,Serum_Institute,(4,_5),2_ + 0.119474375 Q_Td,Serum_Institute,(4,_5),3_ + 0.177 Q_DTwP,Serum_Institute,(4,_5),1_ + 0.17345999999999998 Q_DTwP,Serum_Institute,(4,_5),2_ + 0.16815 Q_DTwP,Serum_Institute,(4,_5),3_ + 0.19 Q_DTwP_Hib,Serum_Institute,(4,_5),1_ + 0.1862 Q_DTwP_Hib,Serum_Institute,(4,_5),2_ + 0.1805 Q_DTwP_Hib,Serum_Institute,(4,_5),3_ + 0.9880000000000001 Q_Penta,Serum_Institute,(4,_5),1_ + 0.9682400000000001 Q_Penta,Serum_Institute,(4,_5),2_ + 0.9386000000000001 Q_Penta,Serum_Institute,(4,_5),3_ + 1.3646111111111112 Q_Rotavirus,Serum_Institute,(4,_5),1_ + 1.337318888888889 Q_Rotavirus,Serum_Institute,(4,_5),2_ + 1.2963805555555556 Q_Rotavirus,Serum_Institute,(4,_5),3_ + 2.7875 Q_PCV,Serum_Institute,(4,_5),1_ + 2.73175 Q_PCV,Serum_Institute,(4,_5),2_ + 2.648125 Q_PCV,Serum_Institute,(4,_5),3_ - 1 N_Serum_Institute,(4,_5)_ >= 0
c1074: -4.312726206018629e8 W_Serum_Institute,(4,_5)_ - 1 Y_tilde_Serum_Institute,4_ + 1 N_Serum_Institute,(4,_5)_ >= -4.312726206018629e8
c1075: 0.350125 Q_M,Serum_Institute,(4,_6),1_ + 0.3431225 Q_M,Serum_Institute,(4,_6),2_ + 0.33261875 Q_M,Serum_Institute,(4,_6),3_ + 0.917875 Q_MR,Serum_Institute,(4,_6),1_ + 0.8995175 Q_MR,Serum_Institute,(4,_6),2_ + 0.8719812499999999 Q_MR,Serum_Institute,(4,_6),3_ + 3.3561666666666667 Q_MMR,Serum_Institute,(4,_6),1_ + 3.2890433333333333 Q_MMR,Serum_Institute,(4,_6),2_ + 3.1883583333333334 Q_MMR,Serum_Institute,(4,_6),3_ + 0.08521875 Q_TT,Serum_Institute,(4,_6),1_ + 0.08351437499999999 Q_TT,Serum_Institute,(4,_6),2_ + 0.08095781249999999 Q_TT,Serum_Institute,(4,_6),3_ + 0.42874999999999996 Q_HepB,Serum_Institute,(4,_6),1_ + 0.42017499999999997 Q_HepB,Serum_Institute,(4,_6),2_ + 0.40731249999999997 Q_HepB,Serum_Institute,(4,_6),3_ + 0.11800000000000001 Q_Hib,Serum_Institute,(4,_6),1_ + 0.11564 Q_Hib,Serum_Institute,(4,_6),2_ + 0.1121 Q_Hib,Serum_Institute,(4,_6),3_ + 0.13693750000000002 Q_OPV,Serum_Institute,(4,_6),1_ + 0.13419875 Q_OPV,Serum_Institute,(4,_6),2_ + 0.13009062500000002 Q_OPV,Serum_Institute,(4,_6),3_ + 0.1257625 Q_Td,Serum_Institute,(4,_6),1_ + 0.12324725 Q_Td,Serum_Institute,(4,_6),2_ + 0.119474375 Q_Td,Serum_Institute,(4,_6),3_ + 0.177 Q_DTwP,Serum_Institute,(4,_6),1_ + 0.17345999999999998 Q_DTwP,Serum_Institute,(4,_6),2_ + 0.16815 Q_DTwP,Serum_Institute,(4,_6),3_ + 0.19 Q_DTwP_Hib,Serum_Institute,(4,_6),1_ + 0.1862 Q_DTwP_Hib,Serum_Institute,(4,_6),2_ + 0.1805 Q_DTwP_Hib,Serum_Institute,(4,_6),3_ + 0.9880000000000001 Q_Penta,Serum_Institute,(4,_6),1_ + 0.9682400000000001 Q_Penta,Serum_Institute,(4,_6),2_ + 0.9386000000000001 Q_Penta,Serum_Institute,(4,_6),3_ + 1.3646111111111112 Q_Rotavirus,Serum_Institute,(4,_6),1_ + 1.337318888888889 Q_Rotavirus,Serum_Institute,(4,_6),2_ + 1.2963805555555556 Q_Rotavirus,Serum_Institute,(4,_6),3_ + 2.7875 Q_PCV,Serum_Institute,(4,_6),1_ + 2.73175 Q_PCV,Serum_Institute,(4,_6),2_ + 2.648125 Q_PCV,Serum_Institute,(4,_6),3_ - 1 N_Serum_Institute,(4,_6)_ >= 0
c1076: -6.469089309027947e8 W_Serum_Institute,(4,_6)_ - 1 Y_tilde_Serum_Institute,4_ + 1 N_Serum_Institute,(4,_6)_ >= -6.469089309027947e8
c1077: 0.350125 Q_M,Serum_Institute,(4,_7),1_ + 0.3431225 Q_M,Serum_Institute,(4,_7),2_ + 0.33261875 Q_M,Serum_Institute,(4,_7),3_ + 0.917875 Q_MR,Serum_Institute,(4,_7),1_ + 0.8995175 Q_MR,Serum_Institute,(4,_7),2_ + 0.8719812499999999 Q_MR,Serum_Institute,(4,_7),3_ + 3.3561666666666667 Q_MMR,Serum_Institute,(4,_7),1_ + 3.2890433333333333 Q_MMR,Serum_Institute,(4,_7),2_ + 3.1883583333333334 Q_MMR,Serum_Institute,(4,_7),3_ + 0.08521875 Q_TT,Serum_Institute,(4,_7),1_ + 0.08351437499999999 Q_TT,Serum_Institute,(4,_7),2_ + 0.08095781249999999 Q_TT,Serum_Institute,(4,_7),3_ + 0.42874999999999996 Q_HepB,Serum_Institute,(4,_7),1_ + 0.42017499999999997 Q_HepB,Serum_Institute,(4,_7),2_ + 0.40731249999999997 Q_HepB,Serum_Institute,(4,_7),3_ + 0.11800000000000001 Q_Hib,Serum_Institute,(4,_7),1_ + 0.11564 Q_Hib,Serum_Institute,(4,_7),2_ + 0.1121 Q_Hib,Serum_Institute,(4,_7),3_ + 0.13693750000000002 Q_OPV,Serum_Institute,(4,_7),1_ + 0.13419875 Q_OPV,Serum_Institute,(4,_7),2_ + 0.13009062500000002 Q_OPV,Serum_Institute,(4,_7),3_ + 0.1257625 Q_Td,Serum_Institute,(4,_7),1_ + 0.12324725 Q_Td,Serum_Institute,(4,_7),2_ + 0.119474375 Q_Td,Serum_Institute,(4,_7),3_ + 0.177 Q_DTwP,Serum_Institute,(4,_7),1_ + 0.17345999999999998 Q_DTwP,Serum_Institute,(4,_7),2_ + 0.16815 Q_DTwP,Serum_Institute,(4,_7),3_ + 0.19 Q_DTwP_Hib,Serum_Institute,(4,_7),1_ + 0.1862 Q_DTwP_Hib,Serum_Institute,(4,_7),2_ + 0.1805 Q_DTwP_Hib,Serum_Institute,(4,_7),3_ + 0.9880000000000001 Q_Penta,Serum_Institute,(4,_7),1_ + 0.9682400000000001 Q_Penta,Serum_Institute,(4,_7),2_ + 0.9386000000000001 Q_Penta,Serum_Institute,(4,_7),3_ + 1.3646111111111112 Q_Rotavirus,Serum_Institute,(4,_7),1_ + 1.337318888888889 Q_Rotavirus,Serum_Institute,(4,_7),2_ + 1.2963805555555556 Q_Rotavirus,Serum_Institute,(4,_7),3_ + 2.7875 Q_PCV,Serum_Institute,(4,_7),1_ + 2.73175 Q_PCV,Serum_Institute,(4,_7),2_ + 2.648125 Q_PCV,Serum_Institute,(4,_7),3_ - 1 N_Serum_Institute,(4,_7)_ >= 0
c1078: -8.625452412037269e8 W_Serum_Institute,(4,_7)_ - 1 Y_tilde_Serum_Institute,4_ + 1 N_Serum_Institute,(4,_7)_ >= -8.625452412037269e8
c1079: 0.350125 Q_M,Serum_Institute,(4,_8),1_ + 0.3431225 Q_M,Serum_Institute,(4,_8),2_ + 0.33261875 Q_M,Serum_Institute,(4,_8),3_ + 0.917875 Q_MR,Serum_Institute,(4,_8),1_ + 0.8995175 Q_MR,Serum_Institute,(4,_8),2_ + 0.8719812499999999 Q_MR,Serum_Institute,(4,_8),3_ + 3.3561666666666667 Q_MMR,Serum_Institute,(4,_8),1_ + 3.2890433333333333 Q_MMR,Serum_Institute,(4,_8),2_ + 3.1883583333333334 Q_MMR,Serum_Institute,(4,_8),3_ + 0.08521875 Q_TT,Serum_Institute,(4,_8),1_ + 0.08351437499999999 Q_TT,Serum_Institute,(4,_8),2_ + 0.08095781249999999 Q_TT,Serum_Institute,(4,_8),3_ + 0.42874999999999996 Q_HepB,Serum_Institute,(4,_8),1_ + 0.42017499999999997 Q_HepB,Serum_Institute,(4,_8),2_ + 0.40731249999999997 Q_HepB,Serum_Institute,(4,_8),3_ + 0.11800000000000001 Q_Hib,Serum_Institute,(4,_8),1_ + 0.11564 Q_Hib,Serum_Institute,(4,_8),2_ + 0.1121 Q_Hib,Serum_Institute,(4,_8),3_ + 0.13693750000000002 Q_OPV,Serum_Institute,(4,_8),1_ + 0.13419875 Q_OPV,Serum_Institute,(4,_8),2_ + 0.13009062500000002 Q_OPV,Serum_Institute,(4,_8),3_ + 0.1257625 Q_Td,Serum_Institute,(4,_8),1_ + 0.12324725 Q_Td,Serum_Institute,(4,_8),2_ + 0.119474375 Q_Td,Serum_Institute,(4,_8),3_ + 0.177 Q_DTwP,Serum_Institute,(4,_8),1_ + 0.17345999999999998 Q_DTwP,Serum_Institute,(4,_8),2_ + 0.16815 Q_DTwP,Serum_Institute,(4,_8),3_ + 0.19 Q_DTwP_Hib,Serum_Institute,(4,_8),1_ + 0.1862 Q_DTwP_Hib,Serum_Institute,(4,_8),2_ + 0.1805 Q_DTwP_Hib,Serum_Institute,(4,_8),3_ + 0.9880000000000001 Q_Penta,Serum_Institute,(4,_8),1_ + 0.9682400000000001 Q_Penta,Serum_Institute,(4,_8),2_ + 0.9386000000000001 Q_Penta,Serum_Institute,(4,_8),3_ + 1.3646111111111112 Q_Rotavirus,Serum_Institute,(4,_8),1_ + 1.337318888888889 Q_Rotavirus,Serum_Institute,(4,_8),2_ + 1.2963805555555556 Q_Rotavirus,Serum_Institute,(4,_8),3_ + 2.7875 Q_PCV,Serum_Institute,(4,_8),1_ + 2.73175 Q_PCV,Serum_Institute,(4,_8),2_ + 2.648125 Q_PCV,Serum_Institute,(4,_8),3_ - 1 N_Serum_Institute,(4,_8)_ >= 0
c1080: -1.078181551504659e9 W_Serum_Institute,(4,_8)_ - 1 Y_tilde_Serum_Institute,4_ + 1 N_Serum_Institute,(4,_8)_ >= -1.078181551504659e9
c1081: 0.3525625 Q_M,Serum_Institute,(5,_5),1_ + 0.34551125 Q_M,Serum_Institute,(5,_5),2_ + 0.334934375 Q_M,Serum_Institute,(5,_5),3_ + 0.8989375 Q_MR,Serum_Institute,(5,_5),1_ + 0.8809587499999999 Q_MR,Serum_Institute,(5,_5),2_ + 0.8539906249999999 Q_MR,Serum_Institute,(5,_5),3_ + 3.3826666666666663 Q_MMR,Serum_Institute,(5,_5),1_ + 3.315013333333333 Q_MMR,Serum_Institute,(5,_5),2_ + 3.213533333333333 Q_MMR,Serum_Institute,(5,_5),3_ + 0.085140625 Q_TT,Serum_Institute,(5,_5),1_ + 0.0834378125 Q_TT,Serum_Institute,(5,_5),2_ + 0.08088359375 Q_TT,Serum_Institute,(5,_5),3_ + 0.42874999999999996 Q_HepB,Serum_Institute,(5,_5),1_ + 0.42017499999999997 Q_HepB,Serum_Institute,(5,_5),2_ + 0.40731249999999997 Q_HepB,Serum_Institute,(5,_5),3_ + 0.11800000000000001 Q_Hib,Serum_Institute,(5,_5),1_ + 0.11564 Q_Hib,Serum_Institute,(5,_5),2_ + 0.1121 Q_Hib,Serum_Institute,(5,_5),3_ + 0.13693750000000002 Q_OPV,Serum_Institute,(5,_5),1_ + 0.13419875 Q_OPV,Serum_Institute,(5,_5),2_ + 0.13009062500000002 Q_OPV,Serum_Institute,(5,_5),3_ + 0.1287 Q_Td,Serum_Institute,(5,_5),1_ + 0.12612600000000002 Q_Td,Serum_Institute,(5,_5),2_ + 0.122265 Q_Td,Serum_Institute,(5,_5),3_ + 0.177 Q_DTwP,Serum_Institute,(5,_5),1_ + 0.17345999999999998 Q_DTwP,Serum_Institute,(5,_5),2_ + 0.16815 Q_DTwP,Serum_Institute,(5,_5),3_ + 0.19 Q_DTwP_Hib,Serum_Institute,(5,_5),1_ + 0.1862 Q_DTwP_Hib,Serum_Institute,(5,_5),2_ + 0.1805 Q_DTwP_Hib,Serum_Institute,(5,_5),3_ + 1.001 Q_Penta,Serum_Institute,(5,_5),1_ + 0.9809799999999999 Q_Penta,Serum_Institute,(5,_5),2_ + 0.9509499999999999 Q_Penta,Serum_Institute,(5,_5),3_ + 1.3437777777777777 Q_Rotavirus,Serum_Institute,(5,_5),1_ + 1.3169022222222222 Q_Rotavirus,Serum_Institute,(5,_5),2_ + 1.2765888888888888 Q_Rotavirus,Serum_Institute,(5,_5),3_ + 2.747916666666667 Q_PCV,Serum_Institute,(5,_5),1_ + 2.6929583333333333 Q_PCV,Serum_Institute,(5,_5),2_ + 2.610520833333333 Q_PCV,Serum_Institute,(5,_5),3_ - 1 N_Serum_Institute,(5,_5)_ >= 0
c1082: -2.1563631030093148e8 W_Serum_Institute,(5,_5)_ - 1 Y_tilde_Serum_Institute,5_ + 1 N_Serum_Institute,(5,_5)_ >= -2.1563631030093148e8
c1083: 0.3525625 Q_M,Serum_Institute,(5,_6),1_ + 0.34551125 Q_M,Serum_Institute,(5,_6),2_ + 0.334934375 Q_M,Serum_Institute,(5,_6),3_ + 0.8989375 Q_MR,Serum_Institute,(5,_6),1_ + 0.8809587499999999 Q_MR,Serum_Institute,(5,_6),2_ + 0.8539906249999999 Q_MR,Serum_Institute,(5,_6),3_ + 3.3826666666666663 Q_MMR,Serum_Institute,(5,_6),1_ + 3.315013333333333 Q_MMR,Serum_Institute,(5,_6),2_ + 3.213533333333333 Q_MMR,Serum_Institute,(5,_6),3_ + 0.085140625 Q_TT,Serum_Institute,(5,_6),1_ + 0.0834378125 Q_TT,Serum_Institute,(5,_6),2_ + 0.08088359375 Q_TT,Serum_Institute,(5,_6),3_ + 0.42874999999999996 Q_HepB,Serum_Institute,(5,_6),1_ + 0.42017499999999997 Q_HepB,Serum_Institute,(5,_6),2_ + 0.40731249999999997 Q_HepB,Serum_Institute,(5,_6),3_ + 0.11800000000000001 Q_Hib,Serum_Institute,(5,_6),1_ + 0.11564 Q_Hib,Serum_Institute,(5,_6),2_ + 0.1121 Q_Hib,Serum_Institute,(5,_6),3_ + 0.13693750000000002 Q_OPV,Serum_Institute,(5,_6),1_ + 0.13419875 Q_OPV,Serum_Institute,(5,_6),2_ + 0.13009062500000002 Q_OPV,Serum_Institute,(5,_6),3_ + 0.1287 Q_Td,Serum_Institute,(5,_6),1_ + 0.12612600000000002 Q_Td,Serum_Institute,(5,_6),2_ + 0.122265 Q_Td,Serum_Institute,(5,_6),3_ + 0.177 Q_DTwP,Serum_Institute,(5,_6),1_ + 0.17345999999999998 Q_DTwP,Serum_Institute,(5,_6),2_ + 0.16815 Q_DTwP,Serum_Institute,(5,_6),3_ + 0.19 Q_DTwP_Hib,Serum_Institute,(5,_6),1_ + 0.1862 Q_DTwP_Hib,Serum_Institute,(5,_6),2_ + 0.1805 Q_DTwP_Hib,Serum_Institute,(5,_6),3_ + 1.001 Q_Penta,Serum_Institute,(5,_6),1_ + 0.9809799999999999 Q_Penta,Serum_Institute,(5,_6),2_ + 0.9509499999999999 Q_Penta,Serum_Institute,(5,_6),3_ + 1.3437777777777777 Q_Rotavirus,Serum_Institute,(5,_6),1_ + 1.3169022222222222 Q_Rotavirus,Serum_Institute,(5,_6),2_ + 1.2765888888888888 Q_Rotavirus,Serum_Institute,(5,_6),3_ + 2.747916666666667 Q_PCV,Serum_Institute,(5,_6),1_ + 2.6929583333333333 Q_PCV,Serum_Institute,(5,_6),2_ + 2.610520833333333 Q_PCV,Serum_Institute,(5,_6),3_ - 1 N_Serum_Institute,(5,_6)_ >= 0
c1084: -4.312726206018629e8 W_Serum_Institute,(5,_6)_ - 1 Y_tilde_Serum_Institute,5_ + 1 N_Serum_Institute,(5,_6)_ >= -4.312726206018629e8
c1085: 0.3525625 Q_M,Serum_Institute,(5,_7),1_ + 0.34551125 Q_M,Serum_Institute,(5,_7),2_ + 0.334934375 Q_M,Serum_Institute,(5,_7),3_ + 0.8989375 Q_MR,Serum_Institute,(5,_7),1_ + 0.8809587499999999 Q_MR,Serum_Institute,(5,_7),2_ + 0.8539906249999999 Q_MR,Serum_Institute,(5,_7),3_ + 3.3826666666666663 Q_MMR,Serum_Institute,(5,_7),1_ + 3.315013333333333 Q_MMR,Serum_Institute,(5,_7),2_ + 3.213533333333333 Q_MMR,Serum_Institute,(5,_7),3_ + 0.085140625 Q_TT,Serum_Institute,(5,_7),1_ + 0.0834378125 Q_TT,Serum_Institute,(5,_7),2_ + 0.08088359375 Q_TT,Serum_Institute,(5,_7),3_ + 0.42874999999999996 Q_HepB,Serum_Institute,(5,_7),1_ + 0.42017499999999997 Q_HepB,Serum_Institute,(5,_7),2_ + 0.40731249999999997 Q_HepB,Serum_Institute,(5,_7),3_ + 0.11800000000000001 Q_Hib,Serum_Institute,(5,_7),1_ + 0.11564 Q_Hib,Serum_Institute,(5,_7),2_ + 0.1121 Q_Hib,Serum_Institute,(5,_7),3_ + 0.13693750000000002 Q_OPV,Serum_Institute,(5,_7),1_ + 0.13419875 Q_OPV,Serum_Institute,(5,_7),2_ + 0.13009062500000002 Q_OPV,Serum_Institute,(5,_7),3_ + 0.1287 Q_Td,Serum_Institute,(5,_7),1_ + 0.12612600000000002 Q_Td,Serum_Institute,(5,_7),2_ + 0.122265 Q_Td,Serum_Institute,(5,_7),3_ + 0.177 Q_DTwP,Serum_Institute,(5,_7),1_ + 0.17345999999999998 Q_DTwP,Serum_Institute,(5,_7),2_ + 0.16815 Q_DTwP,Serum_Institute,(5,_7),3_ + 0.19 Q_DTwP_Hib,Serum_Institute,(5,_7),1_ + 0.1862 Q_DTwP_Hib,Serum_Institute,(5,_7),2_ + 0.1805 Q_DTwP_Hib,Serum_Institute,(5,_7),3_ + 1.001 Q_Penta,Serum_Institute,(5,_7),1_ + 0.9809799999999999 Q_Penta,Serum_Institute,(5,_7),2_ + 0.9509499999999999 Q_Penta,Serum_Institute,(5,_7),3_ + 1.3437777777777777 Q_Rotavirus,Serum_Institute,(5,_7),1_ + 1.3169022222222222 Q_Rotavirus,Serum_Institute,(5,_7),2_ + 1.2765888888888888 Q_Rotavirus,Serum_Institute,(5,_7),3_ + 2.747916666666667 Q_PCV,Serum_Institute,(5,_7),1_ + 2.6929583333333333 Q_PCV,Serum_Institute,(5,_7),2_ + 2.610520833333333 Q_PCV,Serum_Institute,(5,_7),3_ - 1 N_Serum_Institute,(5,_7)_ >= 0
c1086: -6.469089309027947e8 W_Serum_Institute,(5,_7)_ - 1 Y_tilde_Serum_Institute,5_ + 1 N_Serum_Institute,(5,_7)_ >= -6.469089309027947e8
c1087: 0.3525625 Q_M,Serum_Institute,(5,_8),1_ + 0.34551125 Q_M,Serum_Institute,(5,_8),2_ + 0.334934375 Q_M,Serum_Institute,(5,_8),3_ + 0.8989375 Q_MR,Serum_Institute,(5,_8),1_ + 0.8809587499999999 Q_MR,Serum_Institute,(5,_8),2_ + 0.8539906249999999 Q_MR,Serum_Institute,(5,_8),3_ + 3.3826666666666663 Q_MMR,Serum_Institute,(5,_8),1_ + 3.315013333333333 Q_MMR,Serum_Institute,(5,_8),2_ + 3.213533333333333 Q_MMR,Serum_Institute,(5,_8),3_ + 0.085140625 Q_TT,Serum_Institute,(5,_8),1_ + 0.0834378125 Q_TT,Serum_Institute,(5,_8),2_ + 0.08088359375 Q_TT,Serum_Institute,(5,_8),3_ + 0.42874999999999996 Q_HepB,Serum_Institute,(5,_8),1_ + 0.42017499999999997 Q_HepB,Serum_Institute,(5,_8),2_ + 0.40731249999999997 Q_HepB,Serum_Institute,(5,_8),3_ + 0.11800000000000001 Q_Hib,Serum_Institute,(5,_8),1_ + 0.11564 Q_Hib,Serum_Institute,(5,_8),2_ + 0.1121 Q_Hib,Serum_Institute,(5,_8),3_ + 0.13693750000000002 Q_OPV,Serum_Institute,(5,_8),1_ + 0.13419875 Q_OPV,Serum_Institute,(5,_8),2_ + 0.13009062500000002 Q_OPV,Serum_Institute,(5,_8),3_ + 0.1287 Q_Td,Serum_Institute,(5,_8),1_ + 0.12612600000000002 Q_Td,Serum_Institute,(5,_8),2_ + 0.122265 Q_Td,Serum_Institute,(5,_8),3_ + 0.177 Q_DTwP,Serum_Institute,(5,_8),1_ + 0.17345999999999998 Q_DTwP,Serum_Institute,(5,_8),2_ + 0.16815 Q_DTwP,Serum_Institute,(5,_8),3_ + 0.19 Q_DTwP_Hib,Serum_Institute,(5,_8),1_ + 0.1862 Q_DTwP_Hib,Serum_Institute,(5,_8),2_ + 0.1805 Q_DTwP_Hib,Serum_Institute,(5,_8),3_ + 1.001 Q_Penta,Serum_Institute,(5,_8),1_ + 0.9809799999999999 Q_Penta,Serum_Institute,(5,_8),2_ + 0.9509499999999999 Q_Penta,Serum_Institute,(5,_8),3_ + 1.3437777777777777 Q_Rotavirus,Serum_Institute,(5,_8),1_ + 1.3169022222222222 Q_Rotavirus,Serum_Institute,(5,_8),2_ + 1.2765888888888888 Q_Rotavirus,Serum_Institute,(5,_8),3_ + 2.747916666666667 Q_PCV,Serum_Institute,(5,_8),1_ + 2.6929583333333333 Q_PCV,Serum_Institute,(5,_8),2_ + 2.610520833333333 Q_PCV,Serum_Institute,(5,_8),3_ - 1 N_Serum_Institute,(5,_8)_ >= 0
c1088: -8.625452412037269e8 W_Serum_Institute,(5,_8)_ - 1 Y_tilde_Serum_Institute,5_ + 1 N_Serum_Institute,(5,_8)_ >= -8.625452412037269e8
c1089: 0.3525625 Q_M,Serum_Institute,(5,_9),1_ + 0.34551125 Q_M,Serum_Institute,(5,_9),2_ + 0.334934375 Q_M,Serum_Institute,(5,_9),3_ + 0.8989375 Q_MR,Serum_Institute,(5,_9),1_ + 0.8809587499999999 Q_MR,Serum_Institute,(5,_9),2_ + 0.8539906249999999 Q_MR,Serum_Institute,(5,_9),3_ + 3.3826666666666663 Q_MMR,Serum_Institute,(5,_9),1_ + 3.315013333333333 Q_MMR,Serum_Institute,(5,_9),2_ + 3.213533333333333 Q_MMR,Serum_Institute,(5,_9),3_ + 0.085140625 Q_TT,Serum_Institute,(5,_9),1_ + 0.0834378125 Q_TT,Serum_Institute,(5,_9),2_ + 0.08088359375 Q_TT,Serum_Institute,(5,_9),3_ + 0.42874999999999996 Q_HepB,Serum_Institute,(5,_9),1_ + 0.42017499999999997 Q_HepB,Serum_Institute,(5,_9),2_ + 0.40731249999999997 Q_HepB,Serum_Institute,(5,_9),3_ + 0.11800000000000001 Q_Hib,Serum_Institute,(5,_9),1_ + 0.11564 Q_Hib,Serum_Institute,(5,_9),2_ + 0.1121 Q_Hib,Serum_Institute,(5,_9),3_ + 0.13693750000000002 Q_OPV,Serum_Institute,(5,_9),1_ + 0.13419875 Q_OPV,Serum_Institute,(5,_9),2_ + 0.13009062500000002 Q_OPV,Serum_Institute,(5,_9),3_ + 0.1287 Q_Td,Serum_Institute,(5,_9),1_ + 0.12612600000000002 Q_Td,Serum_Institute,(5,_9),2_ + 0.122265 Q_Td,Serum_Institute,(5,_9),3_ + 0.177 Q_DTwP,Serum_Institute,(5,_9),1_ + 0.17345999999999998 Q_DTwP,Serum_Institute,(5,_9),2_ + 0.16815 Q_DTwP,Serum_Institute,(5,_9),3_ + 0.19 Q_DTwP_Hib,Serum_Institute,(5,_9),1_ + 0.1862 Q_DTwP_Hib,Serum_Institute,(5,_9),2_ + 0.1805 Q_DTwP_Hib,Serum_Institute,(5,_9),3_ + 1.001 Q_Penta,Serum_Institute,(5,_9),1_ + 0.9809799999999999 Q_Penta,Serum_Institute,(5,_9),2_ + 0.9509499999999999 Q_Penta,Serum_Institute,(5,_9),3_ + 1.3437777777777777 Q_Rotavirus,Serum_Institute,(5,_9),1_ + 1.3169022222222222 Q_Rotavirus,Serum_Institute,(5,_9),2_ + 1.2765888888888888 Q_Rotavirus,Serum_Institute,(5,_9),3_ + 2.747916666666667 Q_PCV,Serum_Institute,(5,_9),1_ + 2.6929583333333333 Q_PCV,Serum_Institute,(5,_9),2_ + 2.610520833333333 Q_PCV,Serum_Institute,(5,_9),3_ - 1 N_Serum_Institute,(5,_9)_ >= 0
c1090: -1.078181551504659e9 W_Serum_Institute,(5,_9)_ - 1 Y_tilde_Serum_Institute,5_ + 1 N_Serum_Institute,(5,_9)_ >= -1.078181551504659e9
c1091: 0.35134375 Q_M,Serum_Institute,(6,_6),1_ + 0.344316875 Q_M,Serum_Institute,(6,_6),2_ + 0.3337765625 Q_M,Serum_Institute,(6,_6),3_ + 0.9084062500000001 Q_MR,Serum_Institute,(6,_6),1_ + 0.8902381250000001 Q_MR,Serum_Institute,(6,_6),2_ + 0.8629859375000001 Q_MR,Serum_Institute,(6,_6),3_ + 3.3694166666666665 Q_MMR,Serum_Institute,(6,_6),1_ + 3.302028333333333 Q_MMR,Serum_Institute,(6,_6),2_ + 3.200945833333333 Q_MMR,Serum_Institute,(6,_6),3_ + 0.0851796875 Q_TT,Serum_Institute,(6,_6),1_ + 0.08347609375000001 Q_TT,Serum_Institute,(6,_6),2_ + 0.080920703125 Q_TT,Serum_Institute,(6,_6),3_ + 0.42874999999999996 Q_HepB,Serum_Institute,(6,_6),1_ + 0.42017499999999997 Q_HepB,Serum_Institute,(6,_6),2_ + 0.40731249999999997 Q_HepB,Serum_Institute,(6,_6),3_ + 0.11800000000000001 Q_Hib,Serum_Institute,(6,_6),1_ + 0.11564 Q_Hib,Serum_Institute,(6,_6),2_ + 0.1121 Q_Hib,Serum_Institute,(6,_6),3_ + 0.13693750000000002 Q_OPV,Serum_Institute,(6,_6),1_ + 0.13419875 Q_OPV,Serum_Institute,(6,_6),2_ + 0.13009062500000002 Q_OPV,Serum_Institute,(6,_6),3_ + 0.124659375 Q_Td,Serum_Institute,(6,_6),1_ + 0.1221661875 Q_Td,Serum_Institute,(6,_6),2_ + 0.11842640624999999 Q_Td,Serum_Institute,(6,_6),3_ + 0.177 Q_DTwP,Serum_Institute,(6,_6),1_ + 0.17345999999999998 Q_DTwP,Serum_Institute,(6,_6),2_ + 0.16815 Q_DTwP,Serum_Institute,(6,_6),3_ + 0.19 Q_DTwP_Hib,Serum_Institute,(6,_6),1_ + 0.1862 Q_DTwP_Hib,Serum_Institute,(6,_6),2_ + 0.1805 Q_DTwP_Hib,Serum_Institute,(6,_6),3_ + 0.9935 Q_Penta,Serum_Institute,(6,_6),1_ + 0.97363 Q_Penta,Serum_Institute,(6,_6),2_ + 0.943825 Q_Penta,Serum_Institute,(6,_6),3_ + 1.3548888888888888 Q_Rotavirus,Serum_Institute,(6,_6),1_ + 1.327791111111111 Q_Rotavirus,Serum_Institute,(6,_6),2_ + 1.2871444444444442 Q_Rotavirus,Serum_Institute,(6,_6),3_ + 2.767708333333333 Q_PCV,Serum_Institute,(6,_6),1_ + 2.7123541666666666 Q_PCV,Serum_Institute,(6,_6),2_ + 2.6293229166666663 Q_PCV,Serum_Institute,(6,_6),3_ - 1 N_Serum_Institute,(6,_6)_ >= 0
c1092: -2.1563631030093148e8 W_Serum_Institute,(6,_6)_ - 1 Y_tilde_Serum_Institute,6_ + 1 N_Serum_Institute,(6,_6)_ >= -2.1563631030093148e8
c1093: 0.35134375 Q_M,Serum_Institute,(6,_7),1_ + 0.344316875 Q_M,Serum_Institute,(6,_7),2_ + 0.3337765625 Q_M,Serum_Institute,(6,_7),3_ + 0.9084062500000001 Q_MR,Serum_Institute,(6,_7),1_ + 0.8902381250000001 Q_MR,Serum_Institute,(6,_7),2_ + 0.8629859375000001 Q_MR,Serum_Institute,(6,_7),3_ + 3.3694166666666665 Q_MMR,Serum_Institute,(6,_7),1_ + 3.302028333333333 Q_MMR,Serum_Institute,(6,_7),2_ + 3.200945833333333 Q_MMR,Serum_Institute,(6,_7),3_ + 0.0851796875 Q_TT,Serum_Institute,(6,_7),1_ + 0.08347609375000001 Q_TT,Serum_Institute,(6,_7),2_ + 0.080920703125 Q_TT,Serum_Institute,(6,_7),3_ + 0.42874999999999996 Q_HepB,Serum_Institute,(6,_7),1_ + 0.42017499999999997 Q_HepB,Serum_Institute,(6,_7),2_ + 0.40731249999999997 Q_HepB,Serum_Institute,(6,_7),3_ + 0.11800000000000001 Q_Hib,Serum_Institute,(6,_7),1_ + 0.11564 Q_Hib,Serum_Institute,(6,_7),2_ + 0.1121 Q_Hib,Serum_Institute,(6,_7),3_ + 0.13693750000000002 Q_OPV,Serum_Institute,(6,_7),1_ + 0.13419875 Q_OPV,Serum_Institute,(6,_7),2_ + 0.13009062500000002 Q_OPV,Serum_Institute,(6,_7),3_ + 0.124659375 Q_Td,Serum_Institute,(6,_7),1_ + 0.1221661875 Q_Td,Serum_Institute,(6,_7),2_ + 0.11842640624999999 Q_Td,Serum_Institute,(6,_7),3_ + 0.177 Q_DTwP,Serum_Institute,(6,_7),1_ + 0.17345999999999998 Q_DTwP,Serum_Institute,(6,_7),2_ + 0.16815 Q_DTwP,Serum_Institute,(6,_7),3_ + 0.19 Q_DTwP_Hib,Serum_Institute,(6,_7),1_ + 0.1862 Q_DTwP_Hib,Serum_Institute,(6,_7),2_ + 0.1805 Q_DTwP_Hib,Serum_Institute,(6,_7),3_ + 0.9935 Q_Penta,Serum_Institute,(6,_7),1_ + 0.97363 Q_Penta,Serum_Institute,(6,_7),2_ + 0.943825 Q_Penta,Serum_Institute,(6,_7),3_ + 1.3548888888888888 Q_Rotavirus,Serum_Institute,(6,_7),1_ + 1.327791111111111 Q_Rotavirus,Serum_Institute,(6,_7),2_ + 1.2871444444444442 Q_Rotavirus,Serum_Institute,(6,_7),3_ + 2.767708333333333 Q_PCV,Serum_Institute,(6,_7),1_ + 2.7123541666666666 Q_PCV,Serum_Institute,(6,_7),2_ + 2.6293229166666663 Q_PCV,Serum_Institute,(6,_7),3_ - 1 N_Serum_Institute,(6,_7)_ >= 0
c1094: -4.312726206018629e8 W_Serum_Institute,(6,_7)_ - 1 Y_tilde_Serum_Institute,6_ + 1 N_Serum_Institute,(6,_7)_ >= -4.312726206018629e8
c1095: 0.35134375 Q_M,Serum_Institute,(6,_8),1_ + 0.344316875 Q_M,Serum_Institute,(6,_8),2_ + 0.3337765625 Q_M,Serum_Institute,(6,_8),3_ + 0.9084062500000001 Q_MR,Serum_Institute,(6,_8),1_ + 0.8902381250000001 Q_MR,Serum_Institute,(6,_8),2_ + 0.8629859375000001 Q_MR,Serum_Institute,(6,_8),3_ + 3.3694166666666665 Q_MMR,Serum_Institute,(6,_8),1_ + 3.302028333333333 Q_MMR,Serum_Institute,(6,_8),2_ + 3.200945833333333 Q_MMR,Serum_Institute,(6,_8),3_ + 0.0851796875 Q_TT,Serum_Institute,(6,_8),1_ + 0.08347609375000001 Q_TT,Serum_Institute,(6,_8),2_ + 0.080920703125 Q_TT,Serum_Institute,(6,_8),3_ + 0.42874999999999996 Q_HepB,Serum_Institute,(6,_8),1_ + 0.42017499999999997 Q_HepB,Serum_Institute,(6,_8),2_ + 0.40731249999999997 Q_HepB,Serum_Institute,(6,_8),3_ + 0.11800000000000001 Q_Hib,Serum_Institute,(6,_8),1_ + 0.11564 Q_Hib,Serum_Institute,(6,_8),2_ + 0.1121 Q_Hib,Serum_Institute,(6,_8),3_ + 0.13693750000000002 Q_OPV,Serum_Institute,(6,_8),1_ + 0.13419875 Q_OPV,Serum_Institute,(6,_8),2_ + 0.13009062500000002 Q_OPV,Serum_Institute,(6,_8),3_ + 0.124659375 Q_Td,Serum_Institute,(6,_8),1_ + 0.1221661875 Q_Td,Serum_Institute,(6,_8),2_ + 0.11842640624999999 Q_Td,Serum_Institute,(6,_8),3_ + 0.177 Q_DTwP,Serum_Institute,(6,_8),1_ + 0.17345999999999998 Q_DTwP,Serum_Institute,(6,_8),2_ + 0.16815 Q_DTwP,Serum_Institute,(6,_8),3_ + 0.19 Q_DTwP_Hib,Serum_Institute,(6,_8),1_ + 0.1862 Q_DTwP_Hib,Serum_Institute,(6,_8),2_ + 0.1805 Q_DTwP_Hib,Serum_Institute,(6,_8),3_ + 0.9935 Q_Penta,Serum_Institute,(6,_8),1_ + 0.97363 Q_Penta,Serum_Institute,(6,_8),2_ + 0.943825 Q_Penta,Serum_Institute,(6,_8),3_ + 1.3548888888888888 Q_Rotavirus,Serum_Institute,(6,_8),1_ + 1.327791111111111 Q_Rotavirus,Serum_Institute,(6,_8),2_ + 1.2871444444444442 Q_Rotavirus,Serum_Institute,(6,_8),3_ + 2.767708333333333 Q_PCV,Serum_Institute,(6,_8),1_ + 2.7123541666666666 Q_PCV,Serum_Institute,(6,_8),2_ + 2.6293229166666663 Q_PCV,Serum_Institute,(6,_8),3_ - 1 N_Serum_Institute,(6,_8)_ >= 0
c1096: -6.469089309027947e8 W_Serum_Institute,(6,_8)_ - 1 Y_tilde_Serum_Institute,6_ + 1 N_Serum_Institute,(6,_8)_ >= -6.469089309027947e8
c1097: 0.35134375 Q_M,Serum_Institute,(6,_9),1_ + 0.344316875 Q_M,Serum_Institute,(6,_9),2_ + 0.3337765625 Q_M,Serum_Institute,(6,_9),3_ + 0.9084062500000001 Q_MR,Serum_Institute,(6,_9),1_ + 0.8902381250000001 Q_MR,Serum_Institute,(6,_9),2_ + 0.8629859375000001 Q_MR,Serum_Institute,(6,_9),3_ + 3.3694166666666665 Q_MMR,Serum_Institute,(6,_9),1_ + 3.302028333333333 Q_MMR,Serum_Institute,(6,_9),2_ + 3.200945833333333 Q_MMR,Serum_Institute,(6,_9),3_ + 0.0851796875 Q_TT,Serum_Institute,(6,_9),1_ + 0.08347609375000001 Q_TT,Serum_Institute,(6,_9),2_ + 0.080920703125 Q_TT,Serum_Institute,(6,_9),3_ + 0.42874999999999996 Q_HepB,Serum_Institute,(6,_9),1_ + 0.42017499999999997 Q_HepB,Serum_Institute,(6,_9),2_ + 0.40731249999999997 Q_HepB,Serum_Institute,(6,_9),3_ + 0.11800000000000001 Q_Hib,Serum_Institute,(6,_9),1_ + 0.11564 Q_Hib,Serum_Institute,(6,_9),2_ + 0.1121 Q_Hib,Serum_Institute,(6,_9),3_ + 0.13693750000000002 Q_OPV,Serum_Institute,(6,_9),1_ + 0.13419875 Q_OPV,Serum_Institute,(6,_9),2_ + 0.13009062500000002 Q_OPV,Serum_Institute,(6,_9),3_ + 0.124659375 Q_Td,Serum_Institute,(6,_9),1_ + 0.1221661875 Q_Td,Serum_Institute,(6,_9),2_ + 0.11842640624999999 Q_Td,Serum_Institute,(6,_9),3_ + 0.177 Q_DTwP,Serum_Institute,(6,_9),1_ + 0.17345999999999998 Q_DTwP,Serum_Institute,(6,_9),2_ + 0.16815 Q_DTwP,Serum_Institute,(6,_9),3_ + 0.19 Q_DTwP_Hib,Serum_Institute,(6,_9),1_ + 0.1862 Q_DTwP_Hib,Serum_Institute,(6,_9),2_ + 0.1805 Q_DTwP_Hib,Serum_Institute,(6,_9),3_ + 0.9935 Q_Penta,Serum_Institute,(6,_9),1_ + 0.97363 Q_Penta,Serum_Institute,(6,_9),2_ + 0.943825 Q_Penta,Serum_Institute,(6,_9),3_ + 1.3548888888888888 Q_Rotavirus,Serum_Institute,(6,_9),1_ + 1.327791111111111 Q_Rotavirus,Serum_Institute,(6,_9),2_ + 1.2871444444444442 Q_Rotavirus,Serum_Institute,(6,_9),3_ + 2.767708333333333 Q_PCV,Serum_Institute,(6,_9),1_ + 2.7123541666666666 Q_PCV,Serum_Institute,(6,_9),2_ + 2.6293229166666663 Q_PCV,Serum_Institute,(6,_9),3_ - 1 N_Serum_Institute,(6,_9)_ >= 0
c1098: -8.625452412037269e8 W_Serum_Institute,(6,_9)_ - 1 Y_tilde_Serum_Institute,6_ + 1 N_Serum_Institute,(6,_9)_ >= -8.625452412037269e8
c1099: 0.35134375 Q_M,Serum_Institute,(6,_10),1_ + 0.344316875 Q_M,Serum_Institute,(6,_10),2_ + 0.3337765625 Q_M,Serum_Institute,(6,_10),3_ + 0.9084062500000001 Q_MR,Serum_Institute,(6,_10),1_ + 0.8902381250000001 Q_MR,Serum_Institute,(6,_10),2_ + 0.8629859375000001 Q_MR,Serum_Institute,(6,_10),3_ + 3.3694166666666665 Q_MMR,Serum_Institute,(6,_10),1_ + 3.302028333333333 Q_MMR,Serum_Institute,(6,_10),2_ + 3.200945833333333 Q_MMR,Serum_Institute,(6,_10),3_ + 0.0851796875 Q_TT,Serum_Institute,(6,_10),1_ + 0.08347609375000001 Q_TT,Serum_Institute,(6,_10),2_ + 0.080920703125 Q_TT,Serum_Institute,(6,_10),3_ + 0.42874999999999996 Q_HepB,Serum_Institute,(6,_10),1_ + 0.42017499999999997 Q_HepB,Serum_Institute,(6,_10),2_ + 0.40731249999999997 Q_HepB,Serum_Institute,(6,_10),3_ + 0.11800000000000001 Q_Hib,Serum_Institute,(6,_10),1_ + 0.11564 Q_Hib,Serum_Institute,(6,_10),2_ + 0.1121 Q_Hib,Serum_Institute,(6,_10),3_ + 0.13693750000000002 Q_OPV,Serum_Institute,(6,_10),1_ + 0.13419875 Q_OPV,Serum_Institute,(6,_10),2_ + 0.13009062500000002 Q_OPV,Serum_Institute,(6,_10),3_ + 0.124659375 Q_Td,Serum_Institute,(6,_10),1_ + 0.1221661875 Q_Td,Serum_Institute,(6,_10),2_ + 0.11842640624999999 Q_Td,Serum_Institute,(6,_10),3_ + 0.177 Q_DTwP,Serum_Institute,(6,_10),1_ + 0.17345999999999998 Q_DTwP,Serum_Institute,(6,_10),2_ + 0.16815 Q_DTwP,Serum_Institute,(6,_10),3_ + 0.19 Q_DTwP_Hib,Serum_Institute,(6,_10),1_ + 0.1862 Q_DTwP_Hib,Serum_Institute,(6,_10),2_ + 0.1805 Q_DTwP_Hib,Serum_Institute,(6,_10),3_ + 0.9935 Q_Penta,Serum_Institute,(6,_10),1_ + 0.97363 Q_Penta,Serum_Institute,(6,_10),2_ + 0.943825 Q_Penta,Serum_Institute,(6,_10),3_ + 1.3548888888888888 Q_Rotavirus,Serum_Institute,(6,_10),1_ + 1.327791111111111 Q_Rotavirus,Serum_Institute,(6,_10),2_ + 1.2871444444444442 Q_Rotavirus,Serum_Institute,(6,_10),3_ + 2.767708333333333 Q_PCV,Serum_Institute,(6,_10),1_ + 2.7123541666666666 Q_PCV,Serum_Institute,(6,_10),2_ + 2.6293229166666663 Q_PCV,Serum_Institute,(6,_10),3_ - 1 N_Serum_Institute,(6,_10)_ >= 0
c1100: -1.078181551504659e9 W_Serum_Institute,(6,_10)_ - 1 Y_tilde_Serum_Institute,6_ + 1 N_Serum_Institute,(6,_10)_ >= -1.078181551504659e9
c1101: 0.351953125 Q_M,Serum_Institute,(7,_7),1_ + 0.34491406249999995 Q_M,Serum_Institute,(7,_7),2_ + 0.33435546874999994 Q_M,Serum_Institute,(7,_7),3_ + 0.903671875 Q_MR,Serum_Institute,(7,_7),1_ + 0.8855984375 Q_MR,Serum_Institute,(7,_7),2_ + 0.85848828125 Q_MR,Serum_Institute,(7,_7),3_ + 3.3760416666666666 Q_MMR,Serum_Institute,(7,_7),1_ + 3.308520833333333 Q_MMR,Serum_Institute,(7,_7),2_ + 3.207239583333333 Q_MMR,Serum_Institute,(7,_7),3_ + 0.08669765624999999 Q_TT,Serum_Institute,(7,_7),1_ + 0.08496370312499998 Q_TT,Serum_Institute,(7,_7),2_ + 0.08236277343749998 Q_TT,Serum_Institute,(7,_7),3_ + 0.42874999999999996 Q_HepB,Serum_Institute,(7,_7),1_ + 0.42017499999999997 Q_HepB,Serum_Institute,(7,_7),2_ + 0.40731249999999997 Q_HepB,Serum_Institute,(7,_7),3_ + 0.11800000000000001 Q_Hib,Serum_Institute,(7,_7),1_ + 0.11564 Q_Hib,Serum_Institute,(7,_7),2_ + 0.1121 Q_Hib,Serum_Institute,(7,_7),3_ + 0.13693750000000002 Q_OPV,Serum_Institute,(7,_7),1_ + 0.13419875 Q_OPV,Serum_Institute,(7,_7),2_ + 0.13009062500000002 Q_OPV,Serum_Institute,(7,_7),3_ + 0.1292953125 Q_Td,Serum_Institute,(7,_7),1_ + 0.12670940625000002 Q_Td,Serum_Institute,(7,_7),2_ + 0.122830546875 Q_Td,Serum_Institute,(7,_7),3_ + 0.177 Q_DTwP,Serum_Institute,(7,_7),1_ + 0.17345999999999998 Q_DTwP,Serum_Institute,(7,_7),2_ + 0.16815 Q_DTwP,Serum_Institute,(7,_7),3_ + 0.19 Q_DTwP_Hib,Serum_Institute,(7,_7),1_ + 0.1862 Q_DTwP_Hib,Serum_Institute,(7,_7),2_ + 0.1805 Q_DTwP_Hib,Serum_Institute,(7,_7),3_ + 0.99825 Q_Penta,Serum_Institute,(7,_7),1_ + 0.978285 Q_Penta,Serum_Institute,(7,_7),2_ + 0.9483374999999999 Q_Penta,Serum_Institute,(7,_7),3_ + 1.3549595555555554 Q_Rotavirus,Serum_Institute,(7,_7),1_ + 1.3278603644444442 Q_Rotavirus,Serum_Institute,(7,_7),2_ + 1.2872115777777775 Q_Rotavirus,Serum_Institute,(7,_7),3_ + 2.7578125 Q_PCV,Serum_Institute,(7,_7),1_ + 2.70265625 Q_PCV,Serum_Institute,(7,_7),2_ + 2.6199218749999997 Q_PCV,Serum_Institute,(7,_7),3_ - 1 N_Serum_Institute,(7,_7)_ >= 0
c1102: -2.1563631030093148e8 W_Serum_Institute,(7,_7)_ - 1 Y_tilde_Serum_Institute,7_ + 1 N_Serum_Institute,(7,_7)_ >= -2.1563631030093148e8
c1103: 0.351953125 Q_M,Serum_Institute,(7,_8),1_ + 0.34491406249999995 Q_M,Serum_Institute,(7,_8),2_ + 0.33435546874999994 Q_M,Serum_Institute,(7,_8),3_ + 0.903671875 Q_MR,Serum_Institute,(7,_8),1_ + 0.8855984375 Q_MR,Serum_Institute,(7,_8),2_ + 0.85848828125 Q_MR,Serum_Institute,(7,_8),3_ + 3.3760416666666666 Q_MMR,Serum_Institute,(7,_8),1_ + 3.308520833333333 Q_MMR,Serum_Institute,(7,_8),2_ + 3.207239583333333 Q_MMR,Serum_Institute,(7,_8),3_ + 0.08669765624999999 Q_TT,Serum_Institute,(7,_8),1_ + 0.08496370312499998 Q_TT,Serum_Institute,(7,_8),2_ + 0.08236277343749998 Q_TT,Serum_Institute,(7,_8),3_ + 0.42874999999999996 Q_HepB,Serum_Institute,(7,_8),1_ + 0.42017499999999997 Q_HepB,Serum_Institute,(7,_8),2_ + 0.40731249999999997 Q_HepB,Serum_Institute,(7,_8),3_ + 0.11800000000000001 Q_Hib,Serum_Institute,(7,_8),1_ + 0.11564 Q_Hib,Serum_Institute,(7,_8),2_ + 0.1121 Q_Hib,Serum_Institute,(7,_8),3_ + 0.13693750000000002 Q_OPV,Serum_Institute,(7,_8),1_ + 0.13419875 Q_OPV,Serum_Institute,(7,_8),2_ + 0.13009062500000002 Q_OPV,Serum_Institute,(7,_8),3_ + 0.1292953125 Q_Td,Serum_Institute,(7,_8),1_ + 0.12670940625000002 Q_Td,Serum_Institute,(7,_8),2_ + 0.122830546875 Q_Td,Serum_Institute,(7,_8),3_ + 0.177 Q_DTwP,Serum_Institute,(7,_8),1_ + 0.17345999999999998 Q_DTwP,Serum_Institute,(7,_8),2_ + 0.16815 Q_DTwP,Serum_Institute,(7,_8),3_ + 0.19 Q_DTwP_Hib,Serum_Institute,(7,_8),1_ + 0.1862 Q_DTwP_Hib,Serum_Institute,(7,_8),2_ + 0.1805 Q_DTwP_Hib,Serum_Institute,(7,_8),3_ + 0.99825 Q_Penta,Serum_Institute,(7,_8),1_ + 0.978285 Q_Penta,Serum_Institute,(7,_8),2_ + 0.9483374999999999 Q_Penta,Serum_Institute,(7,_8),3_ + 1.3549595555555554 Q_Rotavirus,Serum_Institute,(7,_8),1_ + 1.3278603644444442 Q_Rotavirus,Serum_Institute,(7,_8),2_ + 1.2872115777777775 Q_Rotavirus,Serum_Institute,(7,_8),3_ + 2.7578125 Q_PCV,Serum_Institute,(7,_8),1_ + 2.70265625 Q_PCV,Serum_Institute,(7,_8),2_ + 2.6199218749999997 Q_PCV,Serum_Institute,(7,_8),3_ - 1 N_Serum_Institute,(7,_8)_ >= 0
c1104: -4.312726206018629e8 W_Serum_Institute,(7,_8)_ - 1 Y_tilde_Serum_Institute,7_ + 1 N_Serum_Institute,(7,_8)_ >= -4.312726206018629e8
c1105: 0.351953125 Q_M,Serum_Institute,(7,_9),1_ + 0.34491406249999995 Q_M,Serum_Institute,(7,_9),2_ + 0.33435546874999994 Q_M,Serum_Institute,(7,_9),3_ + 0.903671875 Q_MR,Serum_Institute,(7,_9),1_ + 0.8855984375 Q_MR,Serum_Institute,(7,_9),2_ + 0.85848828125 Q_MR,Serum_Institute,(7,_9),3_ + 3.3760416666666666 Q_MMR,Serum_Institute,(7,_9),1_ + 3.308520833333333 Q_MMR,Serum_Institute,(7,_9),2_ + 3.207239583333333 Q_MMR,Serum_Institute,(7,_9),3_ + 0.08669765624999999 Q_TT,Serum_Institute,(7,_9),1_ + 0.08496370312499998 Q_TT,Serum_Institute,(7,_9),2_ + 0.08236277343749998 Q_TT,Serum_Institute,(7,_9),3_ + 0.42874999999999996 Q_HepB,Serum_Institute,(7,_9),1_ + 0.42017499999999997 Q_HepB,Serum_Institute,(7,_9),2_ + 0.40731249999999997 Q_HepB,Serum_Institute,(7,_9),3_ + 0.11800000000000001 Q_Hib,Serum_Institute,(7,_9),1_ + 0.11564 Q_Hib,Serum_Institute,(7,_9),2_ + 0.1121 Q_Hib,Serum_Institute,(7,_9),3_ + 0.13693750000000002 Q_OPV,Serum_Institute,(7,_9),1_ + 0.13419875 Q_OPV,Serum_Institute,(7,_9),2_ + 0.13009062500000002 Q_OPV,Serum_Institute,(7,_9),3_ + 0.1292953125 Q_Td,Serum_Institute,(7,_9),1_ + 0.12670940625000002 Q_Td,Serum_Institute,(7,_9),2_ + 0.122830546875 Q_Td,Serum_Institute,(7,_9),3_ + 0.177 Q_DTwP,Serum_Institute,(7,_9),1_ + 0.17345999999999998 Q_DTwP,Serum_Institute,(7,_9),2_ + 0.16815 Q_DTwP,Serum_Institute,(7,_9),3_ + 0.19 Q_DTwP_Hib,Serum_Institute,(7,_9),1_ + 0.1862 Q_DTwP_Hib,Serum_Institute,(7,_9),2_ + 0.1805 Q_DTwP_Hib,Serum_Institute,(7,_9),3_ + 0.99825 Q_Penta,Serum_Institute,(7,_9),1_ + 0.978285 Q_Penta,Serum_Institute,(7,_9),2_ + 0.9483374999999999 Q_Penta,Serum_Institute,(7,_9),3_ + 1.3549595555555554 Q_Rotavirus,Serum_Institute,(7,_9),1_ + 1.3278603644444442 Q_Rotavirus,Serum_Institute,(7,_9),2_ + 1.2872115777777775 Q_Rotavirus,Serum_Institute,(7,_9),3_ + 2.7578125 Q_PCV,Serum_Institute,(7,_9),1_ + 2.70265625 Q_PCV,Serum_Institute,(7,_9),2_ + 2.6199218749999997 Q_PCV,Serum_Institute,(7,_9),3_ - 1 N_Serum_Institute,(7,_9)_ >= 0
c1106: -6.469089309027947e8 W_Serum_Institute,(7,_9)_ - 1 Y_tilde_Serum_Institute,7_ + 1 N_Serum_Institute,(7,_9)_ >= -6.469089309027947e8
c1107: 0.351953125 Q_M,Serum_Institute,(7,_10),1_ + 0.34491406249999995 Q_M,Serum_Institute,(7,_10),2_ + 0.33435546874999994 Q_M,Serum_Institute,(7,_10),3_ + 0.903671875 Q_MR,Serum_Institute,(7,_10),1_ + 0.8855984375 Q_MR,Serum_Institute,(7,_10),2_ + 0.85848828125 Q_MR,Serum_Institute,(7,_10),3_ + 3.3760416666666666 Q_MMR,Serum_Institute,(7,_10),1_ + 3.308520833333333 Q_MMR,Serum_Institute,(7,_10),2_ + 3.207239583333333 Q_MMR,Serum_Institute,(7,_10),3_ + 0.08669765624999999 Q_TT,Serum_Institute,(7,_10),1_ + 0.08496370312499998 Q_TT,Serum_Institute,(7,_10),2_ + 0.08236277343749998 Q_TT,Serum_Institute,(7,_10),3_ + 0.42874999999999996 Q_HepB,Serum_Institute,(7,_10),1_ + 0.42017499999999997 Q_HepB,Serum_Institute,(7,_10),2_ + 0.40731249999999997 Q_HepB,Serum_Institute,(7,_10),3_ + 0.11800000000000001 Q_Hib,Serum_Institute,(7,_10),1_ + 0.11564 Q_Hib,Serum_Institute,(7,_10),2_ + 0.1121 Q_Hib,Serum_Institute,(7,_10),3_ + 0.13693750000000002 Q_OPV,Serum_Institute,(7,_10),1_ + 0.13419875 Q_OPV,Serum_Institute,(7,_10),2_ + 0.13009062500000002 Q_OPV,Serum_Institute,(7,_10),3_ + 0.1292953125 Q_Td,Serum_Institute,(7,_10),1_ + 0.12670940625000002 Q_Td,Serum_Institute,(7,_10),2_ + 0.122830546875 Q_Td,Serum_Institute,(7,_10),3_ + 0.177 Q_DTwP,Serum_Institute,(7,_10),1_ + 0.17345999999999998 Q_DTwP,Serum_Institute,(7,_10),2_ + 0.16815 Q_DTwP,Serum_Institute,(7,_10),3_ + 0.19 Q_DTwP_Hib,Serum_Institute,(7,_10),1_ + 0.1862 Q_DTwP_Hib,Serum_Institute,(7,_10),2_ + 0.1805 Q_DTwP_Hib,Serum_Institute,(7,_10),3_ + 0.99825 Q_Penta,Serum_Institute,(7,_10),1_ + 0.978285 Q_Penta,Serum_Institute,(7,_10),2_ + 0.9483374999999999 Q_Penta,Serum_Institute,(7,_10),3_ + 1.3549595555555554 Q_Rotavirus,Serum_Institute,(7,_10),1_ + 1.3278603644444442 Q_Rotavirus,Serum_Institute,(7,_10),2_ + 1.2872115777777775 Q_Rotavirus,Serum_Institute,(7,_10),3_ + 2.7578125 Q_PCV,Serum_Institute,(7,_10),1_ + 2.70265625 Q_PCV,Serum_Institute,(7,_10),2_ + 2.6199218749999997 Q_PCV,Serum_Institute,(7,_10),3_ - 1 N_Serum_Institute,(7,_10)_ >= 0
c1108: -8.625452412037269e8 W_Serum_Institute,(7,_10)_ - 1 Y_tilde_Serum_Institute,7_ + 1 N_Serum_Institute,(7,_10)_ >= -8.625452412037269e8
c1109: 0.35164843749999997 Q_M,Serum_Institute,(8,_8),1_ + 0.34461546875 Q_M,Serum_Institute,(8,_8),2_ + 0.33406601562499993 Q_M,Serum_Institute,(8,_8),3_ + 0.9060390625 Q_MR,Serum_Institute,(8,_8),1_ + 0.8879182812499999 Q_MR,Serum_Institute,(8,_8),2_ + 0.8607371093749999 Q_MR,Serum_Institute,(8,_8),3_ + 3.372729166666667 Q_MMR,Serum_Institute,(8,_8),1_ + 3.3052745833333335 Q_MMR,Serum_Institute,(8,_8),2_ + 3.2040927083333335 Q_MMR,Serum_Institute,(8,_8),3_ + 0.086707421875 Q_TT,Serum_Institute,(8,_8),1_ + 0.0849732734375 Q_TT,Serum_Institute,(8,_8),2_ + 0.08237205078125 Q_TT,Serum_Institute,(8,_8),3_ + 0.42874999999999996 Q_HepB,Serum_Institute,(8,_8),1_ + 0.42017499999999997 Q_HepB,Serum_Institute,(8,_8),2_ + 0.40731249999999997 Q_HepB,Serum_Institute,(8,_8),3_ + 0.11800000000000001 Q_Hib,Serum_Institute,(8,_8),1_ + 0.11564 Q_Hib,Serum_Institute,(8,_8),2_ + 0.1121 Q_Hib,Serum_Institute,(8,_8),3_ + 0.13693750000000002 Q_OPV,Serum_Institute,(8,_8),1_ + 0.13419875 Q_OPV,Serum_Institute,(8,_8),2_ + 0.13009062500000002 Q_OPV,Serum_Institute,(8,_8),3_ + 0.12897734375 Q_Td,Serum_Institute,(8,_8),1_ + 0.126397796875 Q_Td,Serum_Institute,(8,_8),2_ + 0.12252847656249999 Q_Td,Serum_Institute,(8,_8),3_ + 0.177 Q_DTwP,Serum_Institute,(8,_8),1_ + 0.17345999999999998 Q_DTwP,Serum_Institute,(8,_8),2_ + 0.16815 Q_DTwP,Serum_Institute,(8,_8),3_ + 0.19 Q_DTwP_Hib,Serum_Institute,(8,_8),1_ + 0.1862 Q_DTwP_Hib,Serum_Institute,(8,_8),2_ + 0.1805 Q_DTwP_Hib,Serum_Institute,(8,_8),3_ + 0.996875 Q_Penta,Serum_Institute,(8,_8),1_ + 0.9769374999999999 Q_Penta,Serum_Institute,(8,_8),2_ + 0.9470312499999999 Q_Penta,Serum_Institute,(8,_8),3_ + 1.3672171111111109 Q_Rotavirus,Serum_Institute,(8,_8),1_ + 1.3398727688888887 Q_Rotavirus,Serum_Institute,(8,_8),2_ + 1.2988562555555552 Q_Rotavirus,Serum_Institute,(8,_8),3_ + 2.762760416666667 Q_PCV,Serum_Institute,(8,_8),1_ + 2.7075052083333335 Q_PCV,Serum_Institute,(8,_8),2_ + 2.6246223958333337 Q_PCV,Serum_Institute,(8,_8),3_ - 1 N_Serum_Institute,(8,_8)_ >= 0
c1110: -2.1563631030093148e8 W_Serum_Institute,(8,_8)_ - 1 Y_tilde_Serum_Institute,8_ + 1 N_Serum_Institute,(8,_8)_ >= -2.1563631030093148e8
c1111: 0.35164843749999997 Q_M,Serum_Institute,(8,_9),1_ + 0.34461546875 Q_M,Serum_Institute,(8,_9),2_ + 0.33406601562499993 Q_M,Serum_Institute,(8,_9),3_ + 0.9060390625 Q_MR,Serum_Institute,(8,_9),1_ + 0.8879182812499999 Q_MR,Serum_Institute,(8,_9),2_ + 0.8607371093749999 Q_MR,Serum_Institute,(8,_9),3_ + 3.372729166666667 Q_MMR,Serum_Institute,(8,_9),1_ + 3.3052745833333335 Q_MMR,Serum_Institute,(8,_9),2_ + 3.2040927083333335 Q_MMR,Serum_Institute,(8,_9),3_ + 0.086707421875 Q_TT,Serum_Institute,(8,_9),1_ + 0.0849732734375 Q_TT,Serum_Institute,(8,_9),2_ + 0.08237205078125 Q_TT,Serum_Institute,(8,_9),3_ + 0.42874999999999996 Q_HepB,Serum_Institute,(8,_9),1_ + 0.42017499999999997 Q_HepB,Serum_Institute,(8,_9),2_ + 0.40731249999999997 Q_HepB,Serum_Institute,(8,_9),3_ + 0.11800000000000001 Q_Hib,Serum_Institute,(8,_9),1_ + 0.11564 Q_Hib,Serum_Institute,(8,_9),2_ + 0.1121 Q_Hib,Serum_Institute,(8,_9),3_ + 0.13693750000000002 Q_OPV,Serum_Institute,(8,_9),1_ + 0.13419875 Q_OPV,Serum_Institute,(8,_9),2_ + 0.13009062500000002 Q_OPV,Serum_Institute,(8,_9),3_ + 0.12897734375 Q_Td,Serum_Institute,(8,_9),1_ + 0.126397796875 Q_Td,Serum_Institute,(8,_9),2_ + 0.12252847656249999 Q_Td,Serum_Institute,(8,_9),3_ + 0.177 Q_DTwP,Serum_Institute,(8,_9),1_ + 0.17345999999999998 Q_DTwP,Serum_Institute,(8,_9),2_ + 0.16815 Q_DTwP,Serum_Institute,(8,_9),3_ + 0.19 Q_DTwP_Hib,Serum_Institute,(8,_9),1_ + 0.1862 Q_DTwP_Hib,Serum_Institute,(8,_9),2_ + 0.1805 Q_DTwP_Hib,Serum_Institute,(8,_9),3_ + 0.996875 Q_Penta,Serum_Institute,(8,_9),1_ + 0.9769374999999999 Q_Penta,Serum_Institute,(8,_9),2_ + 0.9470312499999999 Q_Penta,Serum_Institute,(8,_9),3_ + 1.3672171111111109 Q_Rotavirus,Serum_Institute,(8,_9),1_ + 1.3398727688888887 Q_Rotavirus,Serum_Institute,(8,_9),2_ + 1.2988562555555552 Q_Rotavirus,Serum_Institute,(8,_9),3_ + 2.762760416666667 Q_PCV,Serum_Institute,(8,_9),1_ + 2.7075052083333335 Q_PCV,Serum_Institute,(8,_9),2_ + 2.6246223958333337 Q_PCV,Serum_Institute,(8,_9),3_ - 1 N_Serum_Institute,(8,_9)_ >= 0
c1112: -4.312726206018629e8 W_Serum_Institute,(8,_9)_ - 1 Y_tilde_Serum_Institute,8_ + 1 N_Serum_Institute,(8,_9)_ >= -4.312726206018629e8
c1113: 0.35164843749999997 Q_M,Serum_Institute,(8,_10),1_ + 0.34461546875 Q_M,Serum_Institute,(8,_10),2_ + 0.33406601562499993 Q_M,Serum_Institute,(8,_10),3_ + 0.9060390625 Q_MR,Serum_Institute,(8,_10),1_ + 0.8879182812499999 Q_MR,Serum_Institute,(8,_10),2_ + 0.8607371093749999 Q_MR,Serum_Institute,(8,_10),3_ + 3.372729166666667 Q_MMR,Serum_Institute,(8,_10),1_ + 3.3052745833333335 Q_MMR,Serum_Institute,(8,_10),2_ + 3.2040927083333335 Q_MMR,Serum_Institute,(8,_10),3_ + 0.086707421875 Q_TT,Serum_Institute,(8,_10),1_ + 0.0849732734375 Q_TT,Serum_Institute,(8,_10),2_ + 0.08237205078125 Q_TT,Serum_Institute,(8,_10),3_ + 0.42874999999999996 Q_HepB,Serum_Institute,(8,_10),1_ + 0.42017499999999997 Q_HepB,Serum_Institute,(8,_10),2_ + 0.40731249999999997 Q_HepB,Serum_Institute,(8,_10),3_ + 0.11800000000000001 Q_Hib,Serum_Institute,(8,_10),1_ + 0.11564 Q_Hib,Serum_Institute,(8,_10),2_ + 0.1121 Q_Hib,Serum_Institute,(8,_10),3_ + 0.13693750000000002 Q_OPV,Serum_Institute,(8,_10),1_ + 0.13419875 Q_OPV,Serum_Institute,(8,_10),2_ + 0.13009062500000002 Q_OPV,Serum_Institute,(8,_10),3_ + 0.12897734375 Q_Td,Serum_Institute,(8,_10),1_ + 0.126397796875 Q_Td,Serum_Institute,(8,_10),2_ + 0.12252847656249999 Q_Td,Serum_Institute,(8,_10),3_ + 0.177 Q_DTwP,Serum_Institute,(8,_10),1_ + 0.17345999999999998 Q_DTwP,Serum_Institute,(8,_10),2_ + 0.16815 Q_DTwP,Serum_Institute,(8,_10),3_ + 0.19 Q_DTwP_Hib,Serum_Institute,(8,_10),1_ + 0.1862 Q_DTwP_Hib,Serum_Institute,(8,_10),2_ + 0.1805 Q_DTwP_Hib,Serum_Institute,(8,_10),3_ + 0.996875 Q_Penta,Serum_Institute,(8,_10),1_ + 0.9769374999999999 Q_Penta,Serum_Institute,(8,_10),2_ + 0.9470312499999999 Q_Penta,Serum_Institute,(8,_10),3_ + 1.3672171111111109 Q_Rotavirus,Serum_Institute,(8,_10),1_ + 1.3398727688888887 Q_Rotavirus,Serum_Institute,(8,_10),2_ + 1.2988562555555552 Q_Rotavirus,Serum_Institute,(8,_10),3_ + 2.762760416666667 Q_PCV,Serum_Institute,(8,_10),1_ + 2.7075052083333335 Q_PCV,Serum_Institute,(8,_10),2_ + 2.6246223958333337 Q_PCV,Serum_Institute,(8,_10),3_ - 1 N_Serum_Institute,(8,_10)_ >= 0
c1114: -6.469089309027947e8 W_Serum_Institute,(8,_10)_ - 1 Y_tilde_Serum_Institute,8_ + 1 N_Serum_Institute,(8,_10)_ >= -6.469089309027947e8
c1115: 0.35180078125 Q_M,Serum_Institute,(9,_9),1_ + 0.344764765625 Q_M,Serum_Institute,(9,_9),2_ + 0.3342107421875 Q_M,Serum_Institute,(9,_9),3_ + 0.90485546875 Q_MR,Serum_Institute,(9,_9),1_ + 0.886758359375 Q_MR,Serum_Institute,(9,_9),2_ + 0.8596126953125 Q_MR,Serum_Institute,(9,_9),3_ + 3.3743854166666667 Q_MMR,Serum_Institute,(9,_9),1_ + 3.3068977083333335 Q_MMR,Serum_Institute,(9,_9),2_ + 3.2056661458333333 Q_MMR,Serum_Institute,(9,_9),3_ + 0.0867025390625 Q_TT,Serum_Institute,(9,_9),1_ + 0.08496848828125 Q_TT,Serum_Institute,(9,_9),2_ + 0.082367412109375 Q_TT,Serum_Institute,(9,_9),3_ + 0.42874999999999996 Q_HepB,Serum_Institute,(9,_9),1_ + 0.42017499999999997 Q_HepB,Serum_Institute,(9,_9),2_ + 0.40731249999999997 Q_HepB,Serum_Institute,(9,_9),3_ + 0.11800000000000001 Q_Hib,Serum_Institute,(9,_9),1_ + 0.11564 Q_Hib,Serum_Institute,(9,_9),2_ + 0.1121 Q_Hib,Serum_Institute,(9,_9),3_ + 0.13693750000000002 Q_OPV,Serum_Institute,(9,_9),1_ + 0.13419875 Q_OPV,Serum_Institute,(9,_9),2_ + 0.13009062500000002 Q_OPV,Serum_Institute,(9,_9),3_ + 0.129136328125 Q_Td,Serum_Institute,(9,_9),1_ + 0.1265536015625 Q_Td,Serum_Institute,(9,_9),2_ + 0.12267951171875 Q_Td,Serum_Institute,(9,_9),3_ + 0.177 Q_DTwP,Serum_Institute,(9,_9),1_ + 0.17345999999999998 Q_DTwP,Serum_Institute,(9,_9),2_ + 0.16815 Q_DTwP,Serum_Institute,(9,_9),3_ + 0.19 Q_DTwP_Hib,Serum_Institute,(9,_9),1_ + 0.1862 Q_DTwP_Hib,Serum_Institute,(9,_9),2_ + 0.1805 Q_DTwP_Hib,Serum_Institute,(9,_9),3_ + 0.9975625000000001 Q_Penta,Serum_Institute,(9,_9),1_ + 0.9776112500000002 Q_Penta,Serum_Institute,(9,_9),2_ + 0.9476843750000001 Q_Penta,Serum_Institute,(9,_9),3_ + 1.3610883333333332 Q_Rotavirus,Serum_Institute,(9,_9),1_ + 1.3338665666666665 Q_Rotavirus,Serum_Institute,(9,_9),2_ + 1.2930339166666664 Q_Rotavirus,Serum_Institute,(9,_9),3_ + 2.7602864583333333 Q_PCV,Serum_Institute,(9,_9),1_ + 2.7050807291666668 Q_PCV,Serum_Institute,(9,_9),2_ + 2.6222721354166665 Q_PCV,Serum_Institute,(9,_9),3_ - 1 N_Serum_Institute,(9,_9)_ >= 0
c1116: -2.1563631030093148e8 W_Serum_Institute,(9,_9)_ - 1 Y_tilde_Serum_Institute,9_ + 1 N_Serum_Institute,(9,_9)_ >= -2.1563631030093148e8
c1117: 0.35180078125 Q_M,Serum_Institute,(9,_10),1_ + 0.344764765625 Q_M,Serum_Institute,(9,_10),2_ + 0.3342107421875 Q_M,Serum_Institute,(9,_10),3_ + 0.90485546875 Q_MR,Serum_Institute,(9,_10),1_ + 0.886758359375 Q_MR,Serum_Institute,(9,_10),2_ + 0.8596126953125 Q_MR,Serum_Institute,(9,_10),3_ + 3.3743854166666667 Q_MMR,Serum_Institute,(9,_10),1_ + 3.3068977083333335 Q_MMR,Serum_Institute,(9,_10),2_ + 3.2056661458333333 Q_MMR,Serum_Institute,(9,_10),3_ + 0.0867025390625 Q_TT,Serum_Institute,(9,_10),1_ + 0.08496848828125 Q_TT,Serum_Institute,(9,_10),2_ + 0.082367412109375 Q_TT,Serum_Institute,(9,_10),3_ + 0.42874999999999996 Q_HepB,Serum_Institute,(9,_10),1_ + 0.42017499999999997 Q_HepB,Serum_Institute,(9,_10),2_ + 0.40731249999999997 Q_HepB,Serum_Institute,(9,_10),3_ + 0.11800000000000001 Q_Hib,Serum_Institute,(9,_10),1_ + 0.11564 Q_Hib,Serum_Institute,(9,_10),2_ + 0.1121 Q_Hib,Serum_Institute,(9,_10),3_ + 0.13693750000000002 Q_OPV,Serum_Institute,(9,_10),1_ + 0.13419875 Q_OPV,Serum_Institute,(9,_10),2_ + 0.13009062500000002 Q_OPV,Serum_Institute,(9,_10),3_ + 0.129136328125 Q_Td,Serum_Institute,(9,_10),1_ + 0.1265536015625 Q_Td,Serum_Institute,(9,_10),2_ + 0.12267951171875 Q_Td,Serum_Institute,(9,_10),3_ + 0.177 Q_DTwP,Serum_Institute,(9,_10),1_ + 0.17345999999999998 Q_DTwP,Serum_Institute,(9,_10),2_ + 0.16815 Q_DTwP,Serum_Institute,(9,_10),3_ + 0.19 Q_DTwP_Hib,Serum_Institute,(9,_10),1_ + 0.1862 Q_DTwP_Hib,Serum_Institute,(9,_10),2_ + 0.1805 Q_DTwP_Hib,Serum_Institute,(9,_10),3_ + 0.9975625000000001 Q_Penta,Serum_Institute,(9,_10),1_ + 0.9776112500000002 Q_Penta,Serum_Institute,(9,_10),2_ + 0.9476843750000001 Q_Penta,Serum_Institute,(9,_10),3_ + 1.3610883333333332 Q_Rotavirus,Serum_Institute,(9,_10),1_ + 1.3338665666666665 Q_Rotavirus,Serum_Institute,(9,_10),2_ + 1.2930339166666664 Q_Rotavirus,Serum_Institute,(9,_10),3_ + 2.7602864583333333 Q_PCV,Serum_Institute,(9,_10),1_ + 2.7050807291666668 Q_PCV,Serum_Institute,(9,_10),2_ + 2.6222721354166665 Q_PCV,Serum_Institute,(9,_10),3_ - 1 N_Serum_Institute,(9,_10)_ >= 0
c1118: -4.312726206018629e8 W_Serum_Institute,(9,_10)_ - 1 Y_tilde_Serum_Institute,9_ + 1 N_Serum_Institute,(9,_10)_ >= -4.312726206018629e8
c1119: 0.351724609375 Q_M,Serum_Institute,(10,_10),1_ + 0.3446901171875 Q_M,Serum_Institute,(10,_10),2_ + 0.33413837890625 Q_M,Serum_Institute,(10,_10),3_ + 0.905447265625 Q_MR,Serum_Institute,(10,_10),1_ + 0.8873383203124999 Q_MR,Serum_Institute,(10,_10),2_ + 0.8601749023437499 Q_MR,Serum_Institute,(10,_10),3_ + 3.3735572916666667 Q_MMR,Serum_Institute,(10,_10),1_ + 3.3060861458333335 Q_MMR,Serum_Institute,(10,_10),2_ + 3.204879427083333 Q_MMR,Serum_Institute,(10,_10),3_ + 0.09829248046875 Q_TT,Serum_Institute,(10,_10),1_ + 0.096326630859375 Q_TT,Serum_Institute,(10,_10),2_ + 0.09337785644531249 Q_TT,Serum_Institute,(10,_10),3_ + 0.42874999999999996 Q_HepB,Serum_Institute,(10,_10),1_ + 0.42017499999999997 Q_HepB,Serum_Institute,(10,_10),2_ + 0.40731249999999997 Q_HepB,Serum_Institute,(10,_10),3_ + 0.11800000000000001 Q_Hib,Serum_Institute,(10,_10),1_ + 0.11564 Q_Hib,Serum_Institute,(10,_10),2_ + 0.1121 Q_Hib,Serum_Institute,(10,_10),3_ + 0.13693750000000002 Q_OPV,Serum_Institute,(10,_10),1_ + 0.13419875 Q_OPV,Serum_Institute,(10,_10),2_ + 0.13009062500000002 Q_OPV,Serum_Institute,(10,_10),3_ + 0.1290568359375 Q_Td,Serum_Institute,(10,_10),1_ + 0.12647569921875 Q_Td,Serum_Institute,(10,_10),2_ + 0.12260399414062499 Q_Td,Serum_Institute,(10,_10),3_ + 0.177 Q_DTwP,Serum_Institute,(10,_10),1_ + 0.17345999999999998 Q_DTwP,Serum_Institute,(10,_10),2_ + 0.16815 Q_DTwP,Serum_Institute,(10,_10),3_ + 0.19 Q_DTwP_Hib,Serum_Institute,(10,_10),1_ + 0.1862 Q_DTwP_Hib,Serum_Institute,(10,_10),2_ + 0.1805 Q_DTwP_Hib,Serum_Institute,(10,_10),3_ + 0.99721875 Q_Penta,Serum_Institute,(10,_10),1_ + 0.977274375 Q_Penta,Serum_Institute,(10,_10),2_ + 0.9473578125 Q_Penta,Serum_Institute,(10,_10),3_ + 1.3641527222222223 Q_Rotavirus,Serum_Institute,(10,_10),1_ + 1.3368696677777778 Q_Rotavirus,Serum_Institute,(10,_10),2_ + 1.295945086111111 Q_Rotavirus,Serum_Institute,(10,_10),3_ + 2.7615234374999997 Q_PCV,Serum_Institute,(10,_10),1_ + 2.7062929687499997 Q_PCV,Serum_Institute,(10,_10),2_ + 2.6234472656249994 Q_PCV,Serum_Institute,(10,_10),3_ - 1 N_Serum_Institute,(10,_10)_ >= 0
c1120: -2.1563631030093148e8 W_Serum_Institute,(10,_10)_ - 1 Y_tilde_Serum_Institute,10_ + 1 N_Serum_Institute,(10,_10)_ >= -2.1563631030093148e8
c1121: 2.8666666666666667 Q_PCV,Pfizer,(1,_1),1_ + 2.8093333333333335 Q_PCV,Pfizer,(1,_1),2_ + 2.723333333333333 Q_PCV,Pfizer,(1,_1),3_ - 1 N_Pfizer,(1,_1)_ >= 0
c1122: -7.323806423828126e7 W_Pfizer,(1,_1)_ - 1 Y_tilde_Pfizer,1_ + 1 N_Pfizer,(1,_1)_ >= -7.323806423828126e7
c1123: 2.8666666666666667 Q_PCV,Pfizer,(1,_2),1_ + 2.8093333333333335 Q_PCV,Pfizer,(1,_2),2_ + 2.723333333333333 Q_PCV,Pfizer,(1,_2),3_ - 1 N_Pfizer,(1,_2)_ >= 0
c1124: -1.4647612847656253e8 W_Pfizer,(1,_2)_ - 1 Y_tilde_Pfizer,1_ + 1 N_Pfizer,(1,_2)_ >= -1.4647612847656253e8
c1125: 2.8666666666666667 Q_PCV,Pfizer,(1,_3),1_ + 2.8093333333333335 Q_PCV,Pfizer,(1,_3),2_ + 2.723333333333333 Q_PCV,Pfizer,(1,_3),3_ - 1 N_Pfizer,(1,_3)_ >= 0
c1126: -2.1971419271484378e8 W_Pfizer,(1,_3)_ - 1 Y_tilde_Pfizer,1_ + 1 N_Pfizer,(1,_3)_ >= -2.1971419271484378e8
c1127: 2.8666666666666667 Q_PCV,Pfizer,(1,_4),1_ + 2.8093333333333335 Q_PCV,Pfizer,(1,_4),2_ + 2.723333333333333 Q_PCV,Pfizer,(1,_4),3_ - 1 N_Pfizer,(1,_4)_ >= 0
c1128: -2.9295225695312506e8 W_Pfizer,(1,_4)_ - 1 Y_tilde_Pfizer,1_ + 1 N_Pfizer,(1,_4)_ >= -2.9295225695312506e8
c1129: 2.8666666666666667 Q_PCV,Pfizer,(1,_5),1_ + 2.8093333333333335 Q_PCV,Pfizer,(1,_5),2_ + 2.723333333333333 Q_PCV,Pfizer,(1,_5),3_ - 1 N_Pfizer,(1,_5)_ >= 0
c1130: -3.661903211914063e8 W_Pfizer,(1,_5)_ - 1 Y_tilde_Pfizer,1_ + 1 N_Pfizer,(1,_5)_ >= -3.661903211914063e8
c1131: 2.8666666666666667 Q_PCV,Pfizer,(2,_2),1_ + 2.8093333333333335 Q_PCV,Pfizer,(2,_2),2_ + 2.723333333333333 Q_PCV,Pfizer,(2,_2),3_ - 1 N_Pfizer,(2,_2)_ >= 0
c1132: -7.323806423828126e7 W_Pfizer,(2,_2)_ - 1 Y_tilde_Pfizer,2_ + 1 N_Pfizer,(2,_2)_ >= -7.323806423828126e7
c1133: 2.8666666666666667 Q_PCV,Pfizer,(2,_3),1_ + 2.8093333333333335 Q_PCV,Pfizer,(2,_3),2_ + 2.723333333333333 Q_PCV,Pfizer,(2,_3),3_ - 1 N_Pfizer,(2,_3)_ >= 0
c1134: -1.4647612847656253e8 W_Pfizer,(2,_3)_ - 1 Y_tilde_Pfizer,2_ + 1 N_Pfizer,(2,_3)_ >= -1.4647612847656253e8
c1135: 2.8666666666666667 Q_PCV,Pfizer,(2,_4),1_ + 2.8093333333333335 Q_PCV,Pfizer,(2,_4),2_ + 2.723333333333333 Q_PCV,Pfizer,(2,_4),3_ - 1 N_Pfizer,(2,_4)_ >= 0
c1136: -2.1971419271484378e8 W_Pfizer,(2,_4)_ - 1 Y_tilde_Pfizer,2_ + 1 N_Pfizer,(2,_4)_ >= -2.1971419271484378e8
c1137: 2.8666666666666667 Q_PCV,Pfizer,(2,_5),1_ + 2.8093333333333335 Q_PCV,Pfizer,(2,_5),2_ + 2.723333333333333 Q_PCV,Pfizer,(2,_5),3_ - 1 N_Pfizer,(2,_5)_ >= 0
c1138: -2.9295225695312506e8 W_Pfizer,(2,_5)_ - 1 Y_tilde_Pfizer,2_ + 1 N_Pfizer,(2,_5)_ >= -2.9295225695312506e8
c1139: 2.8666666666666667 Q_PCV,Pfizer,(2,_6),1_ + 2.8093333333333335 Q_PCV,Pfizer,(2,_6),2_ + 2.723333333333333 Q_PCV,Pfizer,(2,_6),3_ - 1 N_Pfizer,(2,_6)_ >= 0
c1140: -3.661903211914063e8 W_Pfizer,(2,_6)_ - 1 Y_tilde_Pfizer,2_ + 1 N_Pfizer,(2,_6)_ >= -3.661903211914063e8
c1141: 2.7083333333333335 Q_PCV,Pfizer,(3,_3),1_ + 2.654166666666667 Q_PCV,Pfizer,(3,_3),2_ + 2.5729166666666665 Q_PCV,Pfizer,(3,_3),3_ - 1 N_Pfizer,(3,_3)_ >= 0
c1142: -7.323806423828126e7 W_Pfizer,(3,_3)_ - 1 Y_tilde_Pfizer,3_ + 1 N_Pfizer,(3,_3)_ >= -7.323806423828126e7
c1143: 2.7083333333333335 Q_PCV,Pfizer,(3,_4),1_ + 2.654166666666667 Q_PCV,Pfizer,(3,_4),2_ + 2.5729166666666665 Q_PCV,Pfizer,(3,_4),3_ - 1 N_Pfizer,(3,_4)_ >= 0
c1144: -1.4647612847656253e8 W_Pfizer,(3,_4)_ - 1 Y_tilde_Pfizer,3_ + 1 N_Pfizer,(3,_4)_ >= -1.4647612847656253e8
c1145: 2.7083333333333335 Q_PCV,Pfizer,(3,_5),1_ + 2.654166666666667 Q_PCV,Pfizer,(3,_5),2_ + 2.5729166666666665 Q_PCV,Pfizer,(3,_5),3_ - 1 N_Pfizer,(3,_5)_ >= 0
c1146: -2.1971419271484378e8 W_Pfizer,(3,_5)_ - 1 Y_tilde_Pfizer,3_ + 1 N_Pfizer,(3,_5)_ >= -2.1971419271484378e8
c1147: 2.7083333333333335 Q_PCV,Pfizer,(3,_6),1_ + 2.654166666666667 Q_PCV,Pfizer,(3,_6),2_ + 2.5729166666666665 Q_PCV,Pfizer,(3,_6),3_ - 1 N_Pfizer,(3,_6)_ >= 0
c1148: -2.9295225695312506e8 W_Pfizer,(3,_6)_ - 1 Y_tilde_Pfizer,3_ + 1 N_Pfizer,(3,_6)_ >= -2.9295225695312506e8
c1149: 2.7083333333333335 Q_PCV,Pfizer,(3,_7),1_ + 2.654166666666667 Q_PCV,Pfizer,(3,_7),2_ + 2.5729166666666665 Q_PCV,Pfizer,(3,_7),3_ - 1 N_Pfizer,(3,_7)_ >= 0
c1150: -3.661903211914063e8 W_Pfizer,(3,_7)_ - 1 Y_tilde_Pfizer,3_ + 1 N_Pfizer,(3,_7)_ >= -3.661903211914063e8
c1151: 2.7875 Q_PCV,Pfizer,(4,_4),1_ + 2.73175 Q_PCV,Pfizer,(4,_4),2_ + 2.648125 Q_PCV,Pfizer,(4,_4),3_ - 1 N_Pfizer,(4,_4)_ >= 0
c1152: -7.323806423828126e7 W_Pfizer,(4,_4)_ - 1 Y_tilde_Pfizer,4_ + 1 N_Pfizer,(4,_4)_ >= -7.323806423828126e7
c1153: 2.7875 Q_PCV,Pfizer,(4,_5),1_ + 2.73175 Q_PCV,Pfizer,(4,_5),2_ + 2.648125 Q_PCV,Pfizer,(4,_5),3_ - 1 N_Pfizer,(4,_5)_ >= 0
c1154: -1.4647612847656253e8 W_Pfizer,(4,_5)_ - 1 Y_tilde_Pfizer,4_ + 1 N_Pfizer,(4,_5)_ >= -1.4647612847656253e8
c1155: 2.7875 Q_PCV,Pfizer,(4,_6),1_ + 2.73175 Q_PCV,Pfizer,(4,_6),2_ + 2.648125 Q_PCV,Pfizer,(4,_6),3_ - 1 N_Pfizer,(4,_6)_ >= 0
c1156: -2.1971419271484378e8 W_Pfizer,(4,_6)_ - 1 Y_tilde_Pfizer,4_ + 1 N_Pfizer,(4,_6)_ >= -2.1971419271484378e8
c1157: 2.7875 Q_PCV,Pfizer,(4,_7),1_ + 2.73175 Q_PCV,Pfizer,(4,_7),2_ + 2.648125 Q_PCV,Pfizer,(4,_7),3_ - 1 N_Pfizer,(4,_7)_ >= 0
c1158: -2.9295225695312506e8 W_Pfizer,(4,_7)_ - 1 Y_tilde_Pfizer,4_ + 1 N_Pfizer,(4,_7)_ >= -2.9295225695312506e8
c1159: 2.7875 Q_PCV,Pfizer,(4,_8),1_ + 2.73175 Q_PCV,Pfizer,(4,_8),2_ + 2.648125 Q_PCV,Pfizer,(4,_8),3_ - 1 N_Pfizer,(4,_8)_ >= 0
c1160: -3.661903211914063e8 W_Pfizer,(4,_8)_ - 1 Y_tilde_Pfizer,4_ + 1 N_Pfizer,(4,_8)_ >= -3.661903211914063e8
c1161: 2.747916666666667 Q_PCV,Pfizer,(5,_5),1_ + 2.6929583333333333 Q_PCV,Pfizer,(5,_5),2_ + 2.610520833333333 Q_PCV,Pfizer,(5,_5),3_ - 1 N_Pfizer,(5,_5)_ >= 0
c1162: -7.323806423828126e7 W_Pfizer,(5,_5)_ - 1 Y_tilde_Pfizer,5_ + 1 N_Pfizer,(5,_5)_ >= -7.323806423828126e7
c1163: 2.747916666666667 Q_PCV,Pfizer,(5,_6),1_ + 2.6929583333333333 Q_PCV,Pfizer,(5,_6),2_ + 2.610520833333333 Q_PCV,Pfizer,(5,_6),3_ - 1 N_Pfizer,(5,_6)_ >= 0
c1164: -1.4647612847656253e8 W_Pfizer,(5,_6)_ - 1 Y_tilde_Pfizer,5_ + 1 N_Pfizer,(5,_6)_ >= -1.4647612847656253e8
c1165: 2.747916666666667 Q_PCV,Pfizer,(5,_7),1_ + 2.6929583333333333 Q_PCV,Pfizer,(5,_7),2_ + 2.610520833333333 Q_PCV,Pfizer,(5,_7),3_ - 1 N_Pfizer,(5,_7)_ >= 0
c1166: -2.1971419271484378e8 W_Pfizer,(5,_7)_ - 1 Y_tilde_Pfizer,5_ + 1 N_Pfizer,(5,_7)_ >= -2.1971419271484378e8
c1167: 2.747916666666667 Q_PCV,Pfizer,(5,_8),1_ + 2.6929583333333333 Q_PCV,Pfizer,(5,_8),2_ + 2.610520833333333 Q_PCV,Pfizer,(5,_8),3_ - 1 N_Pfizer,(5,_8)_ >= 0
c1168: -2.9295225695312506e8 W_Pfizer,(5,_8)_ - 1 Y_tilde_Pfizer,5_ + 1 N_Pfizer,(5,_8)_ >= -2.9295225695312506e8
c1169: 2.747916666666667 Q_PCV,Pfizer,(5,_9),1_ + 2.6929583333333333 Q_PCV,Pfizer,(5,_9),2_ + 2.610520833333333 Q_PCV,Pfizer,(5,_9),3_ - 1 N_Pfizer,(5,_9)_ >= 0
c1170: -3.661903211914063e8 W_Pfizer,(5,_9)_ - 1 Y_tilde_Pfizer,5_ + 1 N_Pfizer,(5,_9)_ >= -3.661903211914063e8
c1171: 2.767708333333333 Q_PCV,Pfizer,(6,_6),1_ + 2.7123541666666666 Q_PCV,Pfizer,(6,_6),2_ + 2.6293229166666663 Q_PCV,Pfizer,(6,_6),3_ - 1 N_Pfizer,(6,_6)_ >= 0
c1172: -7.323806423828126e7 W_Pfizer,(6,_6)_ - 1 Y_tilde_Pfizer,6_ + 1 N_Pfizer,(6,_6)_ >= -7.323806423828126e7
c1173: 2.767708333333333 Q_PCV,Pfizer,(6,_7),1_ + 2.7123541666666666 Q_PCV,Pfizer,(6,_7),2_ + 2.6293229166666663 Q_PCV,Pfizer,(6,_7),3_ - 1 N_Pfizer,(6,_7)_ >= 0
c1174: -1.4647612847656253e8 W_Pfizer,(6,_7)_ - 1 Y_tilde_Pfizer,6_ + 1 N_Pfizer,(6,_7)_ >= -1.4647612847656253e8
c1175: 2.767708333333333 Q_PCV,Pfizer,(6,_8),1_ + 2.7123541666666666 Q_PCV,Pfizer,(6,_8),2_ + 2.6293229166666663 Q_PCV,Pfizer,(6,_8),3_ - 1 N_Pfizer,(6,_8)_ >= 0
c1176: -2.1971419271484378e8 W_Pfizer,(6,_8)_ - 1 Y_tilde_Pfizer,6_ + 1 N_Pfizer,(6,_8)_ >= -2.1971419271484378e8
c1177: 2.767708333333333 Q_PCV,Pfizer,(6,_9),1_ + 2.7123541666666666 Q_PCV,Pfizer,(6,_9),2_ + 2.6293229166666663 Q_PCV,Pfizer,(6,_9),3_ - 1 N_Pfizer,(6,_9)_ >= 0
c1178: -2.9295225695312506e8 W_Pfizer,(6,_9)_ - 1 Y_tilde_Pfizer,6_ + 1 N_Pfizer,(6,_9)_ >= -2.9295225695312506e8
c1179: 2.767708333333333 Q_PCV,Pfizer,(6,_10),1_ + 2.7123541666666666 Q_PCV,Pfizer,(6,_10),2_ + 2.6293229166666663 Q_PCV,Pfizer,(6,_10),3_ - 1 N_Pfizer,(6,_10)_ >= 0
c1180: -3.661903211914063e8 W_Pfizer,(6,_10)_ - 1 Y_tilde_Pfizer,6_ + 1 N_Pfizer,(6,_10)_ >= -3.661903211914063e8
c1181: 2.7578125 Q_PCV,Pfizer,(7,_7),1_ + 2.70265625 Q_PCV,Pfizer,(7,_7),2_ + 2.6199218749999997 Q_PCV,Pfizer,(7,_7),3_ - 1 N_Pfizer,(7,_7)_ >= 0
c1182: -7.323806423828126e7 W_Pfizer,(7,_7)_ - 1 Y_tilde_Pfizer,7_ + 1 N_Pfizer,(7,_7)_ >= -7.323806423828126e7
c1183: 2.7578125 Q_PCV,Pfizer,(7,_8),1_ + 2.70265625 Q_PCV,Pfizer,(7,_8),2_ + 2.6199218749999997 Q_PCV,Pfizer,(7,_8),3_ - 1 N_Pfizer,(7,_8)_ >= 0
c1184: -1.4647612847656253e8 W_Pfizer,(7,_8)_ - 1 Y_tilde_Pfizer,7_ + 1 N_Pfizer,(7,_8)_ >= -1.4647612847656253e8
c1185: 2.7578125 Q_PCV,Pfizer,(7,_9),1_ + 2.70265625 Q_PCV,Pfizer,(7,_9),2_ + 2.6199218749999997 Q_PCV,Pfizer,(7,_9),3_ - 1 N_Pfizer,(7,_9)_ >= 0
c1186: -2.1971419271484378e8 W_Pfizer,(7,_9)_ - 1 Y_tilde_Pfizer,7_ + 1 N_Pfizer,(7,_9)_ >= -2.1971419271484378e8
c1187: 2.7578125 Q_PCV,Pfizer,(7,_10),1_ + 2.70265625 Q_PCV,Pfizer,(7,_10),2_ + 2.6199218749999997 Q_PCV,Pfizer,(7,_10),3_ - 1 N_Pfizer,(7,_10)_ >= 0
c1188: -2.9295225695312506e8 W_Pfizer,(7,_10)_ - 1 Y_tilde_Pfizer,7_ + 1 N_Pfizer,(7,_10)_ >= -2.9295225695312506e8
c1189: 2.762760416666667 Q_PCV,Pfizer,(8,_8),1_ + 2.7075052083333335 Q_PCV,Pfizer,(8,_8),2_ + 2.6246223958333337 Q_PCV,Pfizer,(8,_8),3_ - 1 N_Pfizer,(8,_8)_ >= 0
c1190: -7.323806423828126e7 W_Pfizer,(8,_8)_ - 1 Y_tilde_Pfizer,8_ + 1 N_Pfizer,(8,_8)_ >= -7.323806423828126e7
c1191: 2.762760416666667 Q_PCV,Pfizer,(8,_9),1_ + 2.7075052083333335 Q_PCV,Pfizer,(8,_9),2_ + 2.6246223958333337 Q_PCV,Pfizer,(8,_9),3_ - 1 N_Pfizer,(8,_9)_ >= 0
c1192: -1.4647612847656253e8 W_Pfizer,(8,_9)_ - 1 Y_tilde_Pfizer,8_ + 1 N_Pfizer,(8,_9)_ >= -1.4647612847656253e8
c1193: 2.762760416666667 Q_PCV,Pfizer,(8,_10),1_ + 2.7075052083333335 Q_PCV,Pfizer,(8,_10),2_ + 2.6246223958333337 Q_PCV,Pfizer,(8,_10),3_ - 1 N_Pfizer,(8,_10)_ >= 0
c1194: -2.1971419271484378e8 W_Pfizer,(8,_10)_ - 1 Y_tilde_Pfizer,8_ + 1 N_Pfizer,(8,_10)_ >= -2.1971419271484378e8
c1195: 2.7602864583333333 Q_PCV,Pfizer,(9,_9),1_ + 2.7050807291666668 Q_PCV,Pfizer,(9,_9),2_ + 2.6222721354166665 Q_PCV,Pfizer,(9,_9),3_ - 1 N_Pfizer,(9,_9)_ >= 0
c1196: -7.323806423828126e7 W_Pfizer,(9,_9)_ - 1 Y_tilde_Pfizer,9_ + 1 N_Pfizer,(9,_9)_ >= -7.323806423828126e7
c1197: 2.7602864583333333 Q_PCV,Pfizer,(9,_10),1_ + 2.7050807291666668 Q_PCV,Pfizer,(9,_10),2_ + 2.6222721354166665 Q_PCV,Pfizer,(9,_10),3_ - 1 N_Pfizer,(9,_10)_ >= 0
c1198: -1.4647612847656253e8 W_Pfizer,(9,_10)_ - 1 Y_tilde_Pfizer,9_ + 1 N_Pfizer,(9,_10)_ >= -1.4647612847656253e8
c1199: 2.7615234374999997 Q_PCV,Pfizer,(10,_10),1_ + 2.7062929687499997 Q_PCV,Pfizer,(10,_10),2_ + 2.6234472656249994 Q_PCV,Pfizer,(10,_10),3_ - 1 N_Pfizer,(10,_10)_ >= 0
c1200: -7.323806423828126e7 W_Pfizer,(10,_10)_ - 1 Y_tilde_Pfizer,10_ + 1 N_Pfizer,(10,_10)_ >= -7.323806423828126e7
c1: -5.477953249999999e6 Y_AJ_Vaccines,1_ + 1 Y_tilde_AJ_Vaccines,1_ = 0
c2: -5.477953249999999e6 Y_AJ_Vaccines,1_ - 5.477953249999999e6 Y_AJ_Vaccines,2_ + 1 Y_tilde_AJ_Vaccines,1_ = 0
c3: -5.477953249999999e6 Y_AJ_Vaccines,1_ - 5.477953249999999e6 Y_AJ_Vaccines,2_ - 5.477953249999999e6 Y_AJ_Vaccines,3_ + 1 Y_tilde_AJ_Vaccines,1_ = 0
c4: -5.477953249999999e6 Y_AJ_Vaccines,1_ - 5.477953249999999e6 Y_AJ_Vaccines,2_ - 5.477953249999999e6 Y_AJ_Vaccines,3_ - 5.477953249999999e6 Y_AJ_Vaccines,4_ + 1 Y_tilde_AJ_Vaccines,1_ = 0
c5: -5.477953249999999e6 Y_AJ_Vaccines,1_ - 5.477953249999999e6 Y_AJ_Vaccines,2_ - 5.477953249999999e6 Y_AJ_Vaccines,3_ - 5.477953249999999e6 Y_AJ_Vaccines,4_ - 5.477953249999999e6 Y_AJ_Vaccines,5_ + 1 Y_tilde_AJ_Vaccines,1_ = 0
c6: -5.477953249999999e6 Y_AJ_Vaccines,2_ + 1 Y_tilde_AJ_Vaccines,2_ = 0
c7: -5.477953249999999e6 Y_AJ_Vaccines,2_ - 5.477953249999999e6 Y_AJ_Vaccines,3_ + 1 Y_tilde_AJ_Vaccines,2_ = 0
c8: -5.477953249999999e6 Y_AJ_Vaccines,2_ - 5.477953249999999e6 Y_AJ_Vaccines,3_ - 5.477953249999999e6 Y_AJ_Vaccines,4_ + 1 Y_tilde_AJ_Vaccines,2_ = 0
c9: -5.477953249999999e6 Y_AJ_Vaccines,2_ - 5.477953249999999e6 Y_AJ_Vaccines,3_ - 5.477953249999999e6 Y_AJ_Vaccines,4_ - 5.477953249999999e6 Y_AJ_Vaccines,5_ + 1 Y_tilde_AJ_Vaccines,2_ = 0
c10: -5.477953249999999e6 Y_AJ_Vaccines,2_ - 5.477953249999999e6 Y_AJ_Vaccines,3_ - 5.477953249999999e6 Y_AJ_Vaccines,4_ - 5.477953249999999e6 Y_AJ_Vaccines,5_ - 5.477953249999999e6 Y_AJ_Vaccines,6_ + 1 Y_tilde_AJ_Vaccines,2_ = 0
c11: -5.477953249999999e6 Y_AJ_Vaccines,3_ + 1 Y_tilde_AJ_Vaccines,3_ = 0
c12: -5.477953249999999e6 Y_AJ_Vaccines,3_ - 5.477953249999999e6 Y_AJ_Vaccines,4_ + 1 Y_tilde_AJ_Vaccines,3_ = 0
c13: -5.477953249999999e6 Y_AJ_Vaccines,3_ - 5.477953249999999e6 Y_AJ_Vaccines,4_ - 5.477953249999999e6 Y_AJ_Vaccines,5_ + 1 Y_tilde_AJ_Vaccines,3_ = 0
c14: -5.477953249999999e6 Y_AJ_Vaccines,3_ - 5.477953249999999e6 Y_AJ_Vaccines,4_ - 5.477953249999999e6 Y_AJ_Vaccines,5_ - 5.477953249999999e6 Y_AJ_Vaccines,6_ + 1 Y_tilde_AJ_Vaccines,3_ = 0
c15: -5.477953249999999e6 Y_AJ_Vaccines,3_ - 5.477953249999999e6 Y_AJ_Vaccines,4_ - 5.477953249999999e6 Y_AJ_Vaccines,5_ - 5.477953249999999e6 Y_AJ_Vaccines,6_ - 5.477953249999999e6 Y_AJ_Vaccines,7_ + 1 Y_tilde_AJ_Vaccines,3_ = 0
c16: -5.477953249999999e6 Y_AJ_Vaccines,4_ + 1 Y_tilde_AJ_Vaccines,4_ = 0
c17: -5.477953249999999e6 Y_AJ_Vaccines,4_ - 5.477953249999999e6 Y_AJ_Vaccines,5_ + 1 Y_tilde_AJ_Vaccines,4_ = 0
c18: -5.477953249999999e6 Y_AJ_Vaccines,4_ - 5.477953249999999e6 Y_AJ_Vaccines,5_ - 5.477953249999999e6 Y_AJ_Vaccines,6_ + 1 Y_tilde_AJ_Vaccines,4_ = 0
c19: -5.477953249999999e6 Y_AJ_Vaccines,4_ - 5.477953249999999e6 Y_AJ_Vaccines,5_ - 5.477953249999999e6 Y_AJ_Vaccines,6_ - 5.477953249999999e6 Y_AJ_Vaccines,7_ + 1 Y_tilde_AJ_Vaccines,4_ = 0
c20: -5.477953249999999e6 Y_AJ_Vaccines,4_ - 5.477953249999999e6 Y_AJ_Vaccines,5_ - 5.477953249999999e6 Y_AJ_Vaccines,6_ - 5.477953249999999e6 Y_AJ_Vaccines,7_ - 5.477953249999999e6 Y_AJ_Vaccines,8_ + 1 Y_tilde_AJ_Vaccines,4_ = 0
c21: -5.477953249999999e6 Y_AJ_Vaccines,5_ + 1 Y_tilde_AJ_Vaccines,5_ = 0
c22: -5.477953249999999e6 Y_AJ_Vaccines,5_ - 5.477953249999999e6 Y_AJ_Vaccines,6_ + 1 Y_tilde_AJ_Vaccines,5_ = 0
c23: -5.477953249999999e6 Y_AJ_Vaccines,5_ - 5.477953249999999e6 Y_AJ_Vaccines,6_ - 5.477953249999999e6 Y_AJ_Vaccines,7_ + 1 Y_tilde_AJ_Vaccines,5_ = 0
c24: -5.477953249999999e6 Y_AJ_Vaccines,5_ - 5.477953249999999e6 Y_AJ_Vaccines,6_ - 5.477953249999999e6 Y_AJ_Vaccines,7_ - 5.477953249999999e6 Y_AJ_Vaccines,8_ + 1 Y_tilde_AJ_Vaccines,5_ = 0
c25: -5.477953249999999e6 Y_AJ_Vaccines,5_ - 5.477953249999999e6 Y_AJ_Vaccines,6_ - 5.477953249999999e6 Y_AJ_Vaccines,7_ - 5.477953249999999e6 Y_AJ_Vaccines,8_ - 5.477953249999999e6 Y_AJ_Vaccines,9_ + 1 Y_tilde_AJ_Vaccines,5_ = 0
c26: -5.477953249999999e6 Y_AJ_Vaccines,6_ + 1 Y_tilde_AJ_Vaccines,6_ = 0
c27: -5.477953249999999e6 Y_AJ_Vaccines,6_ - 5.477953249999999e6 Y_AJ_Vaccines,7_ + 1 Y_tilde_AJ_Vaccines,6_ = 0
c28: -5.477953249999999e6 Y_AJ_Vaccines,6_ - 5.477953249999999e6 Y_AJ_Vaccines,7_ - 5.477953249999999e6 Y_AJ_Vaccines,8_ + 1 Y_tilde_AJ_Vaccines,6_ = 0
c29: -5.477953249999999e6 Y_AJ_Vaccines,6_ - 5.477953249999999e6 Y_AJ_Vaccines,7_ - 5.477953249999999e6 Y_AJ_Vaccines,8_ - 5.477953249999999e6 Y_AJ_Vaccines,9_ + 1 Y_tilde_AJ_Vaccines,6_ = 0
c30: -5.477953249999999e6 Y_AJ_Vaccines,6_ - 5.477953249999999e6 Y_AJ_Vaccines,7_ - 5.477953249999999e6 Y_AJ_Vaccines,8_ - 5.477953249999999e6 Y_AJ_Vaccines,9_ - 5.477953249999999e6 Y_AJ_Vaccines,10_ + 1 Y_tilde_AJ_Vaccines,6_ = 0
c31: -5.477953249999999e6 Y_AJ_Vaccines,7_ + 1 Y_tilde_AJ_Vaccines,7_ = 0
c32: -5.477953249999999e6 Y_AJ_Vaccines,7_ - 5.477953249999999e6 Y_AJ_Vaccines,8_ + 1 Y_tilde_AJ_Vaccines,7_ = 0
c33: -5.477953249999999e6 Y_AJ_Vaccines,7_ - 5.477953249999999e6 Y_AJ_Vaccines,8_ - 5.477953249999999e6 Y_AJ_Vaccines,9_ + 1 Y_tilde_AJ_Vaccines,7_ = 0
c34: -5.477953249999999e6 Y_AJ_Vaccines,7_ - 5.477953249999999e6 Y_AJ_Vaccines,8_ - 5.477953249999999e6 Y_AJ_Vaccines,9_ - 5.477953249999999e6 Y_AJ_Vaccines,10_ + 1 Y_tilde_AJ_Vaccines,7_ = 0
c35: -5.477953249999999e6 Y_AJ_Vaccines,8_ + 1 Y_tilde_AJ_Vaccines,8_ = 0
c36: -5.477953249999999e6 Y_AJ_Vaccines,8_ - 5.477953249999999e6 Y_AJ_Vaccines,9_ + 1 Y_tilde_AJ_Vaccines,8_ = 0
c37: -5.477953249999999e6 Y_AJ_Vaccines,8_ - 5.477953249999999e6 Y_AJ_Vaccines,9_ - 5.477953249999999e6 Y_AJ_Vaccines,10_ + 1 Y_tilde_AJ_Vaccines,8_ = 0
c38: -5.477953249999999e6 Y_AJ_Vaccines,9_ + 1 Y_tilde_AJ_Vaccines,9_ = 0
c39: -5.477953249999999e6 Y_AJ_Vaccines,9_ - 5.477953249999999e6 Y_AJ_Vaccines,10_ + 1 Y_tilde_AJ_Vaccines,9_ = 0
c40: -5.477953249999999e6 Y_AJ_Vaccines,10_ + 1 Y_tilde_AJ_Vaccines,10_ = 0
c41: -2.478484341666667e6 Y_BB_NCIPD,1_ + 1 Y_tilde_BB_NCIPD,1_ = 0
c42: -2.478484341666667e6 Y_BB_NCIPD,1_ - 2.478484341666667e6 Y_BB_NCIPD,2_ + 1 Y_tilde_BB_NCIPD,1_ = 0
c43: -2.478484341666667e6 Y_BB_NCIPD,1_ - 2.478484341666667e6 Y_BB_NCIPD,2_ - 2.478484341666667e6 Y_BB_NCIPD,3_ + 1 Y_tilde_BB_NCIPD,1_ = 0
c44: -2.478484341666667e6 Y_BB_NCIPD,1_ - 2.478484341666667e6 Y_BB_NCIPD,2_ - 2.478484341666667e6 Y_BB_NCIPD,3_ - 2.478484341666667e6 Y_BB_NCIPD,4_ + 1 Y_tilde_BB_NCIPD,1_ = 0
c45: -2.478484341666667e6 Y_BB_NCIPD,1_ - 2.478484341666667e6 Y_BB_NCIPD,2_ - 2.478484341666667e6 Y_BB_NCIPD,3_ - 2.478484341666667e6 Y_BB_NCIPD,4_ - 2.478484341666667e6 Y_BB_NCIPD,5_ + 1 Y_tilde_BB_NCIPD,1_ = 0
c46: -2.478484341666667e6 Y_BB_NCIPD,2_ + 1 Y_tilde_BB_NCIPD,2_ = 0
c47: -2.478484341666667e6 Y_BB_NCIPD,2_ - 2.478484341666667e6 Y_BB_NCIPD,3_ + 1 Y_tilde_BB_NCIPD,2_ = 0
c48: -2.478484341666667e6 Y_BB_NCIPD,2_ - 2.478484341666667e6 Y_BB_NCIPD,3_ - 2.478484341666667e6 Y_BB_NCIPD,4_ + 1 Y_tilde_BB_NCIPD,2_ = 0
c49: -2.478484341666667e6 Y_BB_NCIPD,2_ - 2.478484341666667e6 Y_BB_NCIPD,3_ - 2.478484341666667e6 Y_BB_NCIPD,4_ - 2.478484341666667e6 Y_BB_NCIPD,5_ + 1 Y_tilde_BB_NCIPD,2_ = 0
c50: -2.478484341666667e6 Y_BB_NCIPD,2_ - 2.478484341666667e6 Y_BB_NCIPD,3_ - 2.478484341666667e6 Y_BB_NCIPD,4_ - 2.478484341666667e6 Y_BB_NCIPD,5_ - 2.478484341666667e6 Y_BB_NCIPD,6_ + 1 Y_tilde_BB_NCIPD,2_ = 0
c51: -2.478484341666667e6 Y_BB_NCIPD,3_ + 1 Y_tilde_BB_NCIPD,3_ = 0
c52: -2.478484341666667e6 Y_BB_NCIPD,3_ - 2.478484341666667e6 Y_BB_NCIPD,4_ + 1 Y_tilde_BB_NCIPD,3_ = 0
c53: -2.478484341666667e6 Y_BB_NCIPD,3_ - 2.478484341666667e6 Y_BB_NCIPD,4_ - 2.478484341666667e6 Y_BB_NCIPD,5_ + 1 Y_tilde_BB_NCIPD,3_ = 0
c54: -2.478484341666667e6 Y_BB_NCIPD,3_ - 2.478484341666667e6 Y_BB_NCIPD,4_ - 2.478484341666667e6 Y_BB_NCIPD,5_ - 2.478484341666667e6 Y_BB_NCIPD,6_ + 1 Y_tilde_BB_NCIPD,3_ = 0
c55: -2.478484341666667e6 Y_BB_NCIPD,3_ - 2.478484341666667e6 Y_BB_NCIPD,4_ - 2.478484341666667e6 Y_BB_NCIPD,5_ - 2.478484341666667e6 Y_BB_NCIPD,6_ - 2.478484341666667e6 Y_BB_NCIPD,7_ + 1 Y_tilde_BB_NCIPD,3_ = 0
c56: -2.478484341666667e6 Y_BB_NCIPD,4_ + 1 Y_tilde_BB_NCIPD,4_ = 0
c57: -2.478484341666667e6 Y_BB_NCIPD,4_ - 2.478484341666667e6 Y_BB_NCIPD,5_ + 1 Y_tilde_BB_NCIPD,4_ = 0
c58: -2.478484341666667e6 Y_BB_NCIPD,4_ - 2.478484341666667e6 Y_BB_NCIPD,5_ - 2.478484341666667e6 Y_BB_NCIPD,6_ + 1 Y_tilde_BB_NCIPD,4_ = 0
c59: -2.478484341666667e6 Y_BB_NCIPD,4_ - 2.478484341666667e6 Y_BB_NCIPD,5_ - 2.478484341666667e6 Y_BB_NCIPD,6_ - 2.478484341666667e6 Y_BB_NCIPD,7_ + 1 Y_tilde_BB_NCIPD,4_ = 0
c60: -2.478484341666667e6 Y_BB_NCIPD,4_ - 2.478484341666667e6 Y_BB_NCIPD,5_ - 2.478484341666667e6 Y_BB_NCIPD,6_ - 2.478484341666667e6 Y_BB_NCIPD,7_ - 2.478484341666667e6 Y_BB_NCIPD,8_ + 1 Y_tilde_BB_NCIPD,4_ = 0
c61: -2.478484341666667e6 Y_BB_NCIPD,5_ + 1 Y_tilde_BB_NCIPD,5_ = 0
c62: -2.478484341666667e6 Y_BB_NCIPD,5_ - 2.478484341666667e6 Y_BB_NCIPD,6_ + 1 Y_tilde_BB_NCIPD,5_ = 0
c63: -2.478484341666667e6 Y_BB_NCIPD,5_ - 2.478484341666667e6 Y_BB_NCIPD,6_ - 2.478484341666667e6 Y_BB_NCIPD,7_ + 1 Y_tilde_BB_NCIPD,5_ = 0
c64: -2.478484341666667e6 Y_BB_NCIPD,5_ - 2.478484341666667e6 Y_BB_NCIPD,6_ - 2.478484341666667e6 Y_BB_NCIPD,7_ - 2.478484341666667e6 Y_BB_NCIPD,8_ + 1 Y_tilde_BB_NCIPD,5_ = 0
c65: -2.478484341666667e6 Y_BB_NCIPD,5_ - 2.478484341666667e6 Y_BB_NCIPD,6_ - 2.478484341666667e6 Y_BB_NCIPD,7_ - 2.478484341666667e6 Y_BB_NCIPD,8_ - 2.478484341666667e6 Y_BB_NCIPD,9_ + 1 Y_tilde_BB_NCIPD,5_ = 0
c66: -2.478484341666667e6 Y_BB_NCIPD,6_ + 1 Y_tilde_BB_NCIPD,6_ = 0
c67: -2.478484341666667e6 Y_BB_NCIPD,6_ - 2.478484341666667e6 Y_BB_NCIPD,7_ + 1 Y_tilde_BB_NCIPD,6_ = 0
c68: -2.478484341666667e6 Y_BB_NCIPD,6_ - 2.478484341666667e6 Y_BB_NCIPD,7_ - 2.478484341666667e6 Y_BB_NCIPD,8_ + 1 Y_tilde_BB_NCIPD,6_ = 0
c69: -2.478484341666667e6 Y_BB_NCIPD,6_ - 2.478484341666667e6 Y_BB_NCIPD,7_ - 2.478484341666667e6 Y_BB_NCIPD,8_ - 2.478484341666667e6 Y_BB_NCIPD,9_ + 1 Y_tilde_BB_NCIPD,6_ = 0
c70: -2.478484341666667e6 Y_BB_NCIPD,6_ - 2.478484341666667e6 Y_BB_NCIPD,7_ - 2.478484341666667e6 Y_BB_NCIPD,8_ - 2.478484341666667e6 Y_BB_NCIPD,9_ - 2.478484341666667e6 Y_BB_NCIPD,10_ + 1 Y_tilde_BB_NCIPD,6_ = 0
c71: -2.478484341666667e6 Y_BB_NCIPD,7_ + 1 Y_tilde_BB_NCIPD,7_ = 0
c72: -2.478484341666667e6 Y_BB_NCIPD,7_ - 2.478484341666667e6 Y_BB_NCIPD,8_ + 1 Y_tilde_BB_NCIPD,7_ = 0
c73: -2.478484341666667e6 Y_BB_NCIPD,7_ - 2.478484341666667e6 Y_BB_NCIPD,8_ - 2.478484341666667e6 Y_BB_NCIPD,9_ + 1 Y_tilde_BB_NCIPD,7_ = 0
c74: -2.478484341666667e6 Y_BB_NCIPD,7_ - 2.478484341666667e6 Y_BB_NCIPD,8_ - 2.478484341666667e6 Y_BB_NCIPD,9_ - 2.478484341666667e6 Y_BB_NCIPD,10_ + 1 Y_tilde_BB_NCIPD,7_ = 0
c75: -2.478484341666667e6 Y_BB_NCIPD,8_ + 1 Y_tilde_BB_NCIPD,8_ = 0
c76: -2.478484341666667e6 Y_BB_NCIPD,8_ - 2.478484341666667e6 Y_BB_NCIPD,9_ + 1 Y_tilde_BB_NCIPD,8_ = 0
c77: -2.478484341666667e6 Y_BB_NCIPD,8_ - 2.478484341666667e6 Y_BB_NCIPD,9_ - 2.478484341666667e6 Y_BB_NCIPD,10_ + 1 Y_tilde_BB_NCIPD,8_ = 0
c78: -2.478484341666667e6 Y_BB_NCIPD,9_ + 1 Y_tilde_BB_NCIPD,9_ = 0
c79: -2.478484341666667e6 Y_BB_NCIPD,9_ - 2.478484341666667e6 Y_BB_NCIPD,10_ + 1 Y_tilde_BB_NCIPD,9_ = 0
c80: -2.478484341666667e6 Y_BB_NCIPD,10_ + 1 Y_tilde_BB_NCIPD,10_ = 0
c81: -8.0724434175e6 Y_China_National,1_ + 1 Y_tilde_China_National,1_ = 0
c82: -8.0724434175e6 Y_China_National,1_ - 8.0724434175e6 Y_China_National,2_ + 1 Y_tilde_China_National,1_ = 0
c83: -8.0724434175e6 Y_China_National,1_ - 8.0724434175e6 Y_China_National,2_ - 8.0724434175e6 Y_China_National,3_ + 1 Y_tilde_China_National,1_ = 0
c84: -8.0724434175e6 Y_China_National,1_ - 8.0724434175e6 Y_China_National,2_ - 8.0724434175e6 Y_China_National,3_ - 8.0724434175e6 Y_China_National,4_ + 1 Y_tilde_China_National,1_ = 0
c85: -8.0724434175e6 Y_China_National,1_ - 8.0724434175e6 Y_China_National,2_ - 8.0724434175e6 Y_China_National,3_ - 8.0724434175e6 Y_China_National,4_ - 8.0724434175e6 Y_China_National,5_ + 1 Y_tilde_China_National,1_ = 0
c86: -8.0724434175e6 Y_China_National,2_ + 1 Y_tilde_China_National,2_ = 0
c87: -8.0724434175e6 Y_China_National,2_ - 8.0724434175e6 Y_China_National,3_ + 1 Y_tilde_China_National,2_ = 0
c88: -8.0724434175e6 Y_China_National,2_ - 8.0724434175e6 Y_China_National,3_ - 8.0724434175e6 Y_China_National,4_ + 1 Y_tilde_China_National,2_ = 0
c89: -8.0724434175e6 Y_China_National,2_ - 8.0724434175e6 Y_China_National,3_ - 8.0724434175e6 Y_China_National,4_ - 8.0724434175e6 Y_China_National,5_ + 1 Y_tilde_China_National,2_ = 0
c90: -8.0724434175e6 Y_China_National,2_ - 8.0724434175e6 Y_China_National,3_ - 8.0724434175e6 Y_China_National,4_ - 8.0724434175e6 Y_China_National,5_ - 8.0724434175e6 Y_China_National,6_ + 1 Y_tilde_China_National,2_ = 0
c91: -8.0724434175e6 Y_China_National,3_ + 1 Y_tilde_China_National,3_ = 0
c92: -8.0724434175e6 Y_China_National,3_ - 8.0724434175e6 Y_China_National,4_ + 1 Y_tilde_China_National,3_ = 0
c93: -8.0724434175e6 Y_China_National,3_ - 8.0724434175e6 Y_China_National,4_ - 8.0724434175e6 Y_China_National,5_ + 1 Y_tilde_China_National,3_ = 0
c94: -8.0724434175e6 Y_China_National,3_ - 8.0724434175e6 Y_China_National,4_ - 8.0724434175e6 Y_China_National,5_ - 8.0724434175e6 Y_China_National,6_ + 1 Y_tilde_China_National,3_ = 0
c95: -8.0724434175e6 Y_China_National,3_ - 8.0724434175e6 Y_China_National,4_ - 8.0724434175e6 Y_China_National,5_ - 8.0724434175e6 Y_China_National,6_ - 8.0724434175e6 Y_China_National,7_ + 1 Y_tilde_China_National,3_ = 0
c96: -8.0724434175e6 Y_China_National,4_ + 1 Y_tilde_China_National,4_ = 0
c97: -8.0724434175e6 Y_China_National,4_ - 8.0724434175e6 Y_China_National,5_ + 1 Y_tilde_China_National,4_ = 0
c98: -8.0724434175e6 Y_China_National,4_ - 8.0724434175e6 Y_China_National,5_ - 8.0724434175e6 Y_China_National,6_ + 1 Y_tilde_China_National,4_ = 0
c99: -8.0724434175e6 Y_China_National,4_ - 8.0724434175e6 Y_China_National,5_ - 8.0724434175e6 Y_China_National,6_ - 8.0724434175e6 Y_China_National,7_ + 1 Y_tilde_China_National,4_ = 0
c100: -8.0724434175e6 Y_China_National,4_ - 8.0724434175e6 Y_China_National,5_ - 8.0724434175e6 Y_China_National,6_ - 8.0724434175e6 Y_China_National,7_ - 8.0724434175e6 Y_China_National,8_ + 1 Y_tilde_China_National,4_ = 0
c101: -8.0724434175e6 Y_China_National,5_ + 1 Y_tilde_China_National,5_ = 0
c102: -8.0724434175e6 Y_China_National,5_ - 8.0724434175e6 Y_China_National,6_ + 1 Y_tilde_China_National,5_ = 0
c103: -8.0724434175e6 Y_China_National,5_ - 8.0724434175e6 Y_China_National,6_ - 8.0724434175e6 Y_China_National,7_ + 1 Y_tilde_China_National,5_ = 0
c104: -8.0724434175e6 Y_China_National,5_ - 8.0724434175e6 Y_China_National,6_ - 8.0724434175e6 Y_China_National,7_ - 8.0724434175e6 Y_China_National,8_ + 1 Y_tilde_China_National,5_ = 0
c105: -8.0724434175e6 Y_China_National,5_ - 8.0724434175e6 Y_China_National,6_ - 8.0724434175e6 Y_China_National,7_ - 8.0724434175e6 Y_China_National,8_ - 8.0724434175e6 Y_China_National,9_ + 1 Y_tilde_China_National,5_ = 0
c106: -8.0724434175e6 Y_China_National,6_ + 1 Y_tilde_China_National,6_ = 0
c107: -8.0724434175e6 Y_China_National,6_ - 8.0724434175e6 Y_China_National,7_ + 1 Y_tilde_China_National,6_ = 0
c108: -8.0724434175e6 Y_China_National,6_ - 8.0724434175e6 Y_China_National,7_ - 8.0724434175e6 Y_China_National,8_ + 1 Y_tilde_China_National,6_ = 0
c109: -8.0724434175e6 Y_China_National,6_ - 8.0724434175e6 Y_China_National,7_ - 8.0724434175e6 Y_China_National,8_ - 8.0724434175e6 Y_China_National,9_ + 1 Y_tilde_China_National,6_ = 0
c110: -8.0724434175e6 Y_China_National,6_ - 8.0724434175e6 Y_China_National,7_ - 8.0724434175e6 Y_China_National,8_ - 8.0724434175e6 Y_China_National,9_ - 8.0724434175e6 Y_China_National,10_ + 1 Y_tilde_China_National,6_ = 0
c111: -8.0724434175e6 Y_China_National,7_ + 1 Y_tilde_China_National,7_ = 0
c112: -8.0724434175e6 Y_China_National,7_ - 8.0724434175e6 Y_China_National,8_ + 1 Y_tilde_China_National,7_ = 0
c113: -8.0724434175e6 Y_China_National,7_ - 8.0724434175e6 Y_China_National,8_ - 8.0724434175e6 Y_China_National,9_ + 1 Y_tilde_China_National,7_ = 0
c114: -8.0724434175e6 Y_China_National,7_ - 8.0724434175e6 Y_China_National,8_ - 8.0724434175e6 Y_China_National,9_ - 8.0724434175e6 Y_China_National,10_ + 1 Y_tilde_China_National,7_ = 0
c115: -8.0724434175e6 Y_China_National,8_ + 1 Y_tilde_China_National,8_ = 0
c116: -8.0724434175e6 Y_China_National,8_ - 8.0724434175e6 Y_China_National,9_ + 1 Y_tilde_China_National,8_ = 0
c117: -8.0724434175e6 Y_China_National,8_ - 8.0724434175e6 Y_China_National,9_ - 8.0724434175e6 Y_China_National,10_ + 1 Y_tilde_China_National,8_ = 0
c118: -8.0724434175e6 Y_China_National,9_ + 1 Y_tilde_China_National,9_ = 0
c119: -8.0724434175e6 Y_China_National,9_ - 8.0724434175e6 Y_China_National,10_ + 1 Y_tilde_China_National,9_ = 0
c120: -8.0724434175e6 Y_China_National,10_ + 1 Y_tilde_China_National,10_ = 0
c121: -1.6048253375000004e7 Y_Bharat_Biotech,1_ + 1 Y_tilde_Bharat_Biotech,1_ = 0
c122: -1.6048253375000004e7 Y_Bharat_Biotech,1_ - 1.6048253375000004e7 Y_Bharat_Biotech,2_ + 1 Y_tilde_Bharat_Biotech,1_ = 0
c123: -1.6048253375000004e7 Y_Bharat_Biotech,1_ - 1.6048253375000004e7 Y_Bharat_Biotech,2_ - 1.6048253375000004e7 Y_Bharat_Biotech,3_ + 1 Y_tilde_Bharat_Biotech,1_ = 0
c124: -1.6048253375000004e7 Y_Bharat_Biotech,1_ - 1.6048253375000004e7 Y_Bharat_Biotech,2_ - 1.6048253375000004e7 Y_Bharat_Biotech,3_ - 1.6048253375000004e7 Y_Bharat_Biotech,4_ + 1 Y_tilde_Bharat_Biotech,1_ = 0
c125: -1.6048253375000004e7 Y_Bharat_Biotech,1_ - 1.6048253375000004e7 Y_Bharat_Biotech,2_ - 1.6048253375000004e7 Y_Bharat_Biotech,3_ - 1.6048253375000004e7 Y_Bharat_Biotech,4_ - 1.6048253375000004e7 Y_Bharat_Biotech,5_ + 1 Y_tilde_Bharat_Biotech,1_ = 0
c126: -1.6048253375000004e7 Y_Bharat_Biotech,2_ + 1 Y_tilde_Bharat_Biotech,2_ = 0
c127: -1.6048253375000004e7 Y_Bharat_Biotech,2_ - 1.6048253375000004e7 Y_Bharat_Biotech,3_ + 1 Y_tilde_Bharat_Biotech,2_ = 0
c128: -1.6048253375000004e7 Y_Bharat_Biotech,2_ - 1.6048253375000004e7 Y_Bharat_Biotech,3_ - 1.6048253375000004e7 Y_Bharat_Biotech,4_ + 1 Y_tilde_Bharat_Biotech,2_ = 0
c129: -1.6048253375000004e7 Y_Bharat_Biotech,2_ - 1.6048253375000004e7 Y_Bharat_Biotech,3_ - 1.6048253375000004e7 Y_Bharat_Biotech,4_ - 1.6048253375000004e7 Y_Bharat_Biotech,5_ + 1 Y_tilde_Bharat_Biotech,2_ = 0
c130: -1.6048253375000004e7 Y_Bharat_Biotech,2_ - 1.6048253375000004e7 Y_Bharat_Biotech,3_ - 1.6048253375000004e7 Y_Bharat_Biotech,4_ - 1.6048253375000004e7 Y_Bharat_Biotech,5_ - 1.6048253375000004e7 Y_Bharat_Biotech,6_ + 1 Y_tilde_Bharat_Biotech,2_ = 0
c131: -1.6048253375000004e7 Y_Bharat_Biotech,3_ + 1 Y_tilde_Bharat_Biotech,3_ = 0
c132: -1.6048253375000004e7 Y_Bharat_Biotech,3_ - 1.6048253375000004e7 Y_Bharat_Biotech,4_ + 1 Y_tilde_Bharat_Biotech,3_ = 0
c133: -1.6048253375000004e7 Y_Bharat_Biotech,3_ - 1.6048253375000004e7 Y_Bharat_Biotech,4_ - 1.6048253375000004e7 Y_Bharat_Biotech,5_ + 1 Y_tilde_Bharat_Biotech,3_ = 0
c134: -1.6048253375000004e7 Y_Bharat_Biotech,3_ - 1.6048253375000004e7 Y_Bharat_Biotech,4_ - 1.6048253375000004e7 Y_Bharat_Biotech,5_ - 1.6048253375000004e7 Y_Bharat_Biotech,6_ + 1 Y_tilde_Bharat_Biotech,3_ = 0
c135: -1.6048253375000004e7 Y_Bharat_Biotech,3_ - 1.6048253375000004e7 Y_Bharat_Biotech,4_ - 1.6048253375000004e7 Y_Bharat_Biotech,5_ - 1.6048253375000004e7 Y_Bharat_Biotech,6_ - 1.6048253375000004e7 Y_Bharat_Biotech,7_ + 1 Y_tilde_Bharat_Biotech,3_ = 0
c136: -1.6048253375000004e7 Y_Bharat_Biotech,4_ + 1 Y_tilde_Bharat_Biotech,4_ = 0
c137: -1.6048253375000004e7 Y_Bharat_Biotech,4_ - 1.6048253375000004e7 Y_Bharat_Biotech,5_ + 1 Y_tilde_Bharat_Biotech,4_ = 0
c138: -1.6048253375000004e7 Y_Bharat_Biotech,4_ - 1.6048253375000004e7 Y_Bharat_Biotech,5_ - 1.6048253375000004e7 Y_Bharat_Biotech,6_ + 1 Y_tilde_Bharat_Biotech,4_ = 0
c139: -1.6048253375000004e7 Y_Bharat_Biotech,4_ - 1.6048253375000004e7 Y_Bharat_Biotech,5_ - 1.6048253375000004e7 Y_Bharat_Biotech,6_ - 1.6048253375000004e7 Y_Bharat_Biotech,7_ + 1 Y_tilde_Bharat_Biotech,4_ = 0
c140: -1.6048253375000004e7 Y_Bharat_Biotech,4_ - 1.6048253375000004e7 Y_Bharat_Biotech,5_ - 1.6048253375000004e7 Y_Bharat_Biotech,6_ - 1.6048253375000004e7 Y_Bharat_Biotech,7_ - 1.6048253375000004e7 Y_Bharat_Biotech,8_ + 1 Y_tilde_Bharat_Biotech,4_ = 0
c141: -1.6048253375000004e7 Y_Bharat_Biotech,5_ + 1 Y_tilde_Bharat_Biotech,5_ = 0
c142: -1.6048253375000004e7 Y_Bharat_Biotech,5_ - 1.6048253375000004e7 Y_Bharat_Biotech,6_ + 1 Y_tilde_Bharat_Biotech,5_ = 0
c143: -1.6048253375000004e7 Y_Bharat_Biotech,5_ - 1.6048253375000004e7 Y_Bharat_Biotech,6_ - 1.6048253375000004e7 Y_Bharat_Biotech,7_ + 1 Y_tilde_Bharat_Biotech,5_ = 0
c144: -1.6048253375000004e7 Y_Bharat_Biotech,5_ - 1.6048253375000004e7 Y_Bharat_Biotech,6_ - 1.6048253375000004e7 Y_Bharat_Biotech,7_ - 1.6048253375000004e7 Y_Bharat_Biotech,8_ + 1 Y_tilde_Bharat_Biotech,5_ = 0
c145: -1.6048253375000004e7 Y_Bharat_Biotech,5_ - 1.6048253375000004e7 Y_Bharat_Biotech,6_ - 1.6048253375000004e7 Y_Bharat_Biotech,7_ - 1.6048253375000004e7 Y_Bharat_Biotech,8_ - 1.6048253375000004e7 Y_Bharat_Biotech,9_ + 1 Y_tilde_Bharat_Biotech,5_ = 0
c146: -1.6048253375000004e7 Y_Bharat_Biotech,6_ + 1 Y_tilde_Bharat_Biotech,6_ = 0
c147: -1.6048253375000004e7 Y_Bharat_Biotech,6_ - 1.6048253375000004e7 Y_Bharat_Biotech,7_ + 1 Y_tilde_Bharat_Biotech,6_ = 0
c148: -1.6048253375000004e7 Y_Bharat_Biotech,6_ - 1.6048253375000004e7 Y_Bharat_Biotech,7_ - 1.6048253375000004e7 Y_Bharat_Biotech,8_ + 1 Y_tilde_Bharat_Biotech,6_ = 0
c149: -1.6048253375000004e7 Y_Bharat_Biotech,6_ - 1.6048253375000004e7 Y_Bharat_Biotech,7_ - 1.6048253375000004e7 Y_Bharat_Biotech,8_ - 1.6048253375000004e7 Y_Bharat_Biotech,9_ + 1 Y_tilde_Bharat_Biotech,6_ = 0
c150: -1.6048253375000004e7 Y_Bharat_Biotech,6_ - 1.6048253375000004e7 Y_Bharat_Biotech,7_ - 1.6048253375000004e7 Y_Bharat_Biotech,8_ - 1.6048253375000004e7 Y_Bharat_Biotech,9_ - 1.6048253375000004e7 Y_Bharat_Biotech,10_ + 1 Y_tilde_Bharat_Biotech,6_ = 0
c151: -1.6048253375000004e7 Y_Bharat_Biotech,7_ + 1 Y_tilde_Bharat_Biotech,7_ = 0
c152: -1.6048253375000004e7 Y_Bharat_Biotech,7_ - 1.6048253375000004e7 Y_Bharat_Biotech,8_ + 1 Y_tilde_Bharat_Biotech,7_ = 0
c153: -1.6048253375000004e7 Y_Bharat_Biotech,7_ - 1.6048253375000004e7 Y_Bharat_Biotech,8_ - 1.6048253375000004e7 Y_Bharat_Biotech,9_ + 1 Y_tilde_Bharat_Biotech,7_ = 0
c154: -1.6048253375000004e7 Y_Bharat_Biotech,7_ - 1.6048253375000004e7 Y_Bharat_Biotech,8_ - 1.6048253375000004e7 Y_Bharat_Biotech,9_ - 1.6048253375000004e7 Y_Bharat_Biotech,10_ + 1 Y_tilde_Bharat_Biotech,7_ = 0
c155: -1.6048253375000004e7 Y_Bharat_Biotech,8_ + 1 Y_tilde_Bharat_Biotech,8_ = 0
c156: -1.6048253375000004e7 Y_Bharat_Biotech,8_ - 1.6048253375000004e7 Y_Bharat_Biotech,9_ + 1 Y_tilde_Bharat_Biotech,8_ = 0
c157: -1.6048253375000004e7 Y_Bharat_Biotech,8_ - 1.6048253375000004e7 Y_Bharat_Biotech,9_ - 1.6048253375000004e7 Y_Bharat_Biotech,10_ + 1 Y_tilde_Bharat_Biotech,8_ = 0
c158: -1.6048253375000004e7 Y_Bharat_Biotech,9_ + 1 Y_tilde_Bharat_Biotech,9_ = 0
c159: -1.6048253375000004e7 Y_Bharat_Biotech,9_ - 1.6048253375000004e7 Y_Bharat_Biotech,10_ + 1 Y_tilde_Bharat_Biotech,9_ = 0
c160: -1.6048253375000004e7 Y_Bharat_Biotech,10_ + 1 Y_tilde_Bharat_Biotech,10_ = 0
c161: -9.463826166666666e6 Y_Bilthoven,1_ + 1 Y_tilde_Bilthoven,1_ = 0
c162: -9.463826166666666e6 Y_Bilthoven,1_ - 9.463826166666666e6 Y_Bilthoven,2_ + 1 Y_tilde_Bilthoven,1_ = 0
c163: -9.463826166666666e6 Y_Bilthoven,1_ - 9.463826166666666e6 Y_Bilthoven,2_ - 9.463826166666666e6 Y_Bilthoven,3_ + 1 Y_tilde_Bilthoven,1_ = 0
c164: -9.463826166666666e6 Y_Bilthoven,1_ - 9.463826166666666e6 Y_Bilthoven,2_ - 9.463826166666666e6 Y_Bilthoven,3_ - 9.463826166666666e6 Y_Bilthoven,4_ + 1 Y_tilde_Bilthoven,1_ = 0
c165: -9.463826166666666e6 Y_Bilthoven,1_ - 9.463826166666666e6 Y_Bilthoven,2_ - 9.463826166666666e6 Y_Bilthoven,3_ - 9.463826166666666e6 Y_Bilthoven,4_ - 9.463826166666666e6 Y_Bilthoven,5_ + 1 Y_tilde_Bilthoven,1_ = 0
c166: -9.463826166666666e6 Y_Bilthoven,2_ + 1 Y_tilde_Bilthoven,2_ = 0
c167: -9.463826166666666e6 Y_Bilthoven,2_ - 9.463826166666666e6 Y_Bilthoven,3_ + 1 Y_tilde_Bilthoven,2_ = 0
c168: -9.463826166666666e6 Y_Bilthoven,2_ - 9.463826166666666e6 Y_Bilthoven,3_ - 9.463826166666666e6 Y_Bilthoven,4_ + 1 Y_tilde_Bilthoven,2_ = 0
c169: -9.463826166666666e6 Y_Bilthoven,2_ - 9.463826166666666e6 Y_Bilthoven,3_ - 9.463826166666666e6 Y_Bilthoven,4_ - 9.463826166666666e6 Y_Bilthoven,5_ + 1 Y_tilde_Bilthoven,2_ = 0
c170: -9.463826166666666e6 Y_Bilthoven,2_ - 9.463826166666666e6 Y_Bilthoven,3_ - 9.463826166666666e6 Y_Bilthoven,4_ - 9.463826166666666e6 Y_Bilthoven,5_ - 9.463826166666666e6 Y_Bilthoven,6_ + 1 Y_tilde_Bilthoven,2_ = 0
c171: -9.463826166666666e6 Y_Bilthoven,3_ + 1 Y_tilde_Bilthoven,3_ = 0
c172: -9.463826166666666e6 Y_Bilthoven,3_ - 9.463826166666666e6 Y_Bilthoven,4_ + 1 Y_tilde_Bilthoven,3_ = 0
c173: -9.463826166666666e6 Y_Bilthoven,3_ - 9.463826166666666e6 Y_Bilthoven,4_ - 9.463826166666666e6 Y_Bilthoven,5_ + 1 Y_tilde_Bilthoven,3_ = 0
c174: -9.463826166666666e6 Y_Bilthoven,3_ - 9.463826166666666e6 Y_Bilthoven,4_ - 9.463826166666666e6 Y_Bilthoven,5_ - 9.463826166666666e6 Y_Bilthoven,6_ + 1 Y_tilde_Bilthoven,3_ = 0
c175: -9.463826166666666e6 Y_Bilthoven,3_ - 9.463826166666666e6 Y_Bilthoven,4_ - 9.463826166666666e6 Y_Bilthoven,5_ - 9.463826166666666e6 Y_Bilthoven,6_ - 9.463826166666666e6 Y_Bilthoven,7_ + 1 Y_tilde_Bilthoven,3_ = 0
c176: -9.463826166666666e6 Y_Bilthoven,4_ + 1 Y_tilde_Bilthoven,4_ = 0
c177: -9.463826166666666e6 Y_Bilthoven,4_ - 9.463826166666666e6 Y_Bilthoven,5_ + 1 Y_tilde_Bilthoven,4_ = 0
c178: -9.463826166666666e6 Y_Bilthoven,4_ - 9.463826166666666e6 Y_Bilthoven,5_ - 9.463826166666666e6 Y_Bilthoven,6_ + 1 Y_tilde_Bilthoven,4_ = 0
c179: -9.463826166666666e6 Y_Bilthoven,4_ - 9.463826166666666e6 Y_Bilthoven,5_ - 9.463826166666666e6 Y_Bilthoven,6_ - 9.463826166666666e6 Y_Bilthoven,7_ + 1 Y_tilde_Bilthoven,4_ = 0
c180: -9.463826166666666e6 Y_Bilthoven,4_ - 9.463826166666666e6 Y_Bilthoven,5_ - 9.463826166666666e6 Y_Bilthoven,6_ - 9.463826166666666e6 Y_Bilthoven,7_ - 9.463826166666666e6 Y_Bilthoven,8_ + 1 Y_tilde_Bilthoven,4_ = 0
c181: -9.463826166666666e6 Y_Bilthoven,5_ + 1 Y_tilde_Bilthoven,5_ = 0
c182: -9.463826166666666e6 Y_Bilthoven,5_ - 9.463826166666666e6 Y_Bilthoven,6_ + 1 Y_tilde_Bilthoven,5_ = 0
c183: -9.463826166666666e6 Y_Bilthoven,5_ - 9.463826166666666e6 Y_Bilthoven,6_ - 9.463826166666666e6 Y_Bilthoven,7_ + 1 Y_tilde_Bilthoven,5_ = 0
c184: -9.463826166666666e6 Y_Bilthoven,5_ - 9.463826166666666e6 Y_Bilthoven,6_ - 9.463826166666666e6 Y_Bilthoven,7_ - 9.463826166666666e6 Y_Bilthoven,8_ + 1 Y_tilde_Bilthoven,5_ = 0
c185: -9.463826166666666e6 Y_Bilthoven,5_ - 9.463826166666666e6 Y_Bilthoven,6_ - 9.463826166666666e6 Y_Bilthoven,7_ - 9.463826166666666e6 Y_Bilthoven,8_ - 9.463826166666666e6 Y_Bilthoven,9_ + 1 Y_tilde_Bilthoven,5_ = 0
c186: -9.463826166666666e6 Y_Bilthoven,6_ + 1 Y_tilde_Bilthoven,6_ = 0
c187: -9.463826166666666e6 Y_Bilthoven,6_ - 9.463826166666666e6 Y_Bilthoven,7_ + 1 Y_tilde_Bilthoven,6_ = 0
c188: -9.463826166666666e6 Y_Bilthoven,6_ - 9.463826166666666e6 Y_Bilthoven,7_ - 9.463826166666666e6 Y_Bilthoven,8_ + 1 Y_tilde_Bilthoven,6_ = 0
c189: -9.463826166666666e6 Y_Bilthoven,6_ - 9.463826166666666e6 Y_Bilthoven,7_ - 9.463826166666666e6 Y_Bilthoven,8_ - 9.463826166666666e6 Y_Bilthoven,9_ + 1 Y_tilde_Bilthoven,6_ = 0
c190: -9.463826166666666e6 Y_Bilthoven,6_ - 9.463826166666666e6 Y_Bilthoven,7_ - 9.463826166666666e6 Y_Bilthoven,8_ - 9.463826166666666e6 Y_Bilthoven,9_ - 9.463826166666666e6 Y_Bilthoven,10_ + 1 Y_tilde_Bilthoven,6_ = 0
c191: -9.463826166666666e6 Y_Bilthoven,7_ + 1 Y_tilde_Bilthoven,7_ = 0
c192: -9.463826166666666e6 Y_Bilthoven,7_ - 9.463826166666666e6 Y_Bilthoven,8_ + 1 Y_tilde_Bilthoven,7_ = 0
c193: -9.463826166666666e6 Y_Bilthoven,7_ - 9.463826166666666e6 Y_Bilthoven,8_ - 9.463826166666666e6 Y_Bilthoven,9_ + 1 Y_tilde_Bilthoven,7_ = 0
c194: -9.463826166666666e6 Y_Bilthoven,7_ - 9.463826166666666e6 Y_Bilthoven,8_ - 9.463826166666666e6 Y_Bilthoven,9_ - 9.463826166666666e6 Y_Bilthoven,10_ + 1 Y_tilde_Bilthoven,7_ = 0
c195: -9.463826166666666e6 Y_Bilthoven,8_ + 1 Y_tilde_Bilthoven,8_ = 0
c196: -9.463826166666666e6 Y_Bilthoven,8_ - 9.463826166666666e6 Y_Bilthoven,9_ + 1 Y_tilde_Bilthoven,8_ = 0
c197: -9.463826166666666e6 Y_Bilthoven,8_ - 9.463826166666666e6 Y_Bilthoven,9_ - 9.463826166666666e6 Y_Bilthoven,10_ + 1 Y_tilde_Bilthoven,8_ = 0
c198: -9.463826166666666e6 Y_Bilthoven,9_ + 1 Y_tilde_Bilthoven,9_ = 0
c199: -9.463826166666666e6 Y_Bilthoven,9_ - 9.463826166666666e6 Y_Bilthoven,10_ + 1 Y_tilde_Bilthoven,9_ = 0
c200: -9.463826166666666e6 Y_Bilthoven,10_ + 1 Y_tilde_Bilthoven,10_ = 0
c201: -2.9494754604218755e7 Y_Biological_E,1_ + 1 Y_tilde_Biological_E,1_ = 0
c202: -2.9494754604218755e7 Y_Biological_E,1_ - 2.9494754604218755e7 Y_Biological_E,2_ + 1 Y_tilde_Biological_E,1_ = 0
c203: -2.9494754604218755e7 Y_Biological_E,1_ - 2.9494754604218755e7 Y_Biological_E,2_ - 2.9494754604218755e7 Y_Biological_E,3_ + 1 Y_tilde_Biological_E,1_ = 0
c204: -2.9494754604218755e7 Y_Biological_E,1_ - 2.9494754604218755e7 Y_Biological_E,2_ - 2.9494754604218755e7 Y_Biological_E,3_ - 2.9494754604218755e7 Y_Biological_E,4_ + 1 Y_tilde_Biological_E,1_ = 0
c205: -2.9494754604218755e7 Y_Biological_E,1_ - 2.9494754604218755e7 Y_Biological_E,2_ - 2.9494754604218755e7 Y_Biological_E,3_ - 2.9494754604218755e7 Y_Biological_E,4_ - 2.9494754604218755e7 Y_Biological_E,5_ + 1 Y_tilde_Biological_E,1_ = 0
c206: -2.9494754604218755e7 Y_Biological_E,2_ + 1 Y_tilde_Biological_E,2_ = 0
c207: -2.9494754604218755e7 Y_Biological_E,2_ - 2.9494754604218755e7 Y_Biological_E,3_ + 1 Y_tilde_Biological_E,2_ = 0
c208: -2.9494754604218755e7 Y_Biological_E,2_ - 2.9494754604218755e7 Y_Biological_E,3_ - 2.9494754604218755e7 Y_Biological_E,4_ + 1 Y_tilde_Biological_E,2_ = 0
c209: -2.9494754604218755e7 Y_Biological_E,2_ - 2.9494754604218755e7 Y_Biological_E,3_ - 2.9494754604218755e7 Y_Biological_E,4_ - 2.9494754604218755e7 Y_Biological_E,5_ + 1 Y_tilde_Biological_E,2_ = 0
c210: -2.9494754604218755e7 Y_Biological_E,2_ - 2.9494754604218755e7 Y_Biological_E,3_ - 2.9494754604218755e7 Y_Biological_E,4_ - 2.9494754604218755e7 Y_Biological_E,5_ - 2.9494754604218755e7 Y_Biological_E,6_ + 1 Y_tilde_Biological_E,2_ = 0
c211: -2.9494754604218755e7 Y_Biological_E,3_ + 1 Y_tilde_Biological_E,3_ = 0
c212: -2.9494754604218755e7 Y_Biological_E,3_ - 2.9494754604218755e7 Y_Biological_E,4_ + 1 Y_tilde_Biological_E,3_ = 0
c213: -2.9494754604218755e7 Y_Biological_E,3_ - 2.9494754604218755e7 Y_Biological_E,4_ - 2.9494754604218755e7 Y_Biological_E,5_ + 1 Y_tilde_Biological_E,3_ = 0
c214: -2.9494754604218755e7 Y_Biological_E,3_ - 2.9494754604218755e7 Y_Biological_E,4_ - 2.9494754604218755e7 Y_Biological_E,5_ - 2.9494754604218755e7 Y_Biological_E,6_ + 1 Y_tilde_Biological_E,3_ = 0
c215: -2.9494754604218755e7 Y_Biological_E,3_ - 2.9494754604218755e7 Y_Biological_E,4_ - 2.9494754604218755e7 Y_Biological_E,5_ - 2.9494754604218755e7 Y_Biological_E,6_ - 2.9494754604218755e7 Y_Biological_E,7_ + 1 Y_tilde_Biological_E,3_ = 0
c216: -2.9494754604218755e7 Y_Biological_E,4_ + 1 Y_tilde_Biological_E,4_ = 0
c217: -2.9494754604218755e7 Y_Biological_E,4_ - 2.9494754604218755e7 Y_Biological_E,5_ + 1 Y_tilde_Biological_E,4_ = 0
c218: -2.9494754604218755e7 Y_Biological_E,4_ - 2.9494754604218755e7 Y_Biological_E,5_ - 2.9494754604218755e7 Y_Biological_E,6_ + 1 Y_tilde_Biological_E,4_ = 0
c219: -2.9494754604218755e7 Y_Biological_E,4_ - 2.9494754604218755e7 Y_Biological_E,5_ - 2.9494754604218755e7 Y_Biological_E,6_ - 2.9494754604218755e7 Y_Biological_E,7_ + 1 Y_tilde_Biological_E,4_ = 0
c220: -2.9494754604218755e7 Y_Biological_E,4_ - 2.9494754604218755e7 Y_Biological_E,5_ - 2.9494754604218755e7 Y_Biological_E,6_ - 2.9494754604218755e7 Y_Biological_E,7_ - 2.9494754604218755e7 Y_Biological_E,8_ + 1 Y_tilde_Biological_E,4_ = 0
c221: -2.9494754604218755e7 Y_Biological_E,5_ + 1 Y_tilde_Biological_E,5_ = 0
c222: -2.9494754604218755e7 Y_Biological_E,5_ - 2.9494754604218755e7 Y_Biological_E,6_ + 1 Y_tilde_Biological_E,5_ = 0
c223: -2.9494754604218755e7 Y_Biological_E,5_ - 2.9494754604218755e7 Y_Biological_E,6_ - 2.9494754604218755e7 Y_Biological_E,7_ + 1 Y_tilde_Biological_E,5_ = 0
c224: -2.9494754604218755e7 Y_Biological_E,5_ - 2.9494754604218755e7 Y_Biological_E,6_ - 2.9494754604218755e7 Y_Biological_E,7_ - 2.9494754604218755e7 Y_Biological_E,8_ + 1 Y_tilde_Biological_E,5_ = 0
c225: -2.9494754604218755e7 Y_Biological_E,5_ - 2.9494754604218755e7 Y_Biological_E,6_ - 2.9494754604218755e7 Y_Biological_E,7_ - 2.9494754604218755e7 Y_Biological_E,8_ - 2.9494754604218755e7 Y_Biological_E,9_ + 1 Y_tilde_Biological_E,5_ = 0
c226: -2.9494754604218755e7 Y_Biological_E,6_ + 1 Y_tilde_Biological_E,6_ = 0
c227: -2.9494754604218755e7 Y_Biological_E,6_ - 2.9494754604218755e7 Y_Biological_E,7_ + 1 Y_tilde_Biological_E,6_ = 0
c228: -2.9494754604218755e7 Y_Biological_E,6_ - 2.9494754604218755e7 Y_Biological_E,7_ - 2.9494754604218755e7 Y_Biological_E,8_ + 1 Y_tilde_Biological_E,6_ = 0
c229: -2.9494754604218755e7 Y_Biological_E,6_ - 2.9494754604218755e7 Y_Biological_E,7_ - 2.9494754604218755e7 Y_Biological_E,8_ - 2.9494754604218755e7 Y_Biological_E,9_ + 1 Y_tilde_Biological_E,6_ = 0
c230: -2.9494754604218755e7 Y_Biological_E,6_ - 2.9494754604218755e7 Y_Biological_E,7_ - 2.9494754604218755e7 Y_Biological_E,8_ - 2.9494754604218755e7 Y_Biological_E,9_ - 2.9494754604218755e7 Y_Biological_E,10_ + 1 Y_tilde_Biological_E,6_ = 0
c231: -2.9494754604218755e7 Y_Biological_E,7_ + 1 Y_tilde_Biological_E,7_ = 0
c232: -2.9494754604218755e7 Y_Biological_E,7_ - 2.9494754604218755e7 Y_Biological_E,8_ + 1 Y_tilde_Biological_E,7_ = 0
c233: -2.9494754604218755e7 Y_Biological_E,7_ - 2.9494754604218755e7 Y_Biological_E,8_ - 2.9494754604218755e7 Y_Biological_E,9_ + 1 Y_tilde_Biological_E,7_ = 0
c234: -2.9494754604218755e7 Y_Biological_E,7_ - 2.9494754604218755e7 Y_Biological_E,8_ - 2.9494754604218755e7 Y_Biological_E,9_ - 2.9494754604218755e7 Y_Biological_E,10_ + 1 Y_tilde_Biological_E,7_ = 0
c235: -2.9494754604218755e7 Y_Biological_E,8_ + 1 Y_tilde_Biological_E,8_ = 0
c236: -2.9494754604218755e7 Y_Biological_E,8_ - 2.9494754604218755e7 Y_Biological_E,9_ + 1 Y_tilde_Biological_E,8_ = 0
c237: -2.9494754604218755e7 Y_Biological_E,8_ - 2.9494754604218755e7 Y_Biological_E,9_ - 2.9494754604218755e7 Y_Biological_E,10_ + 1 Y_tilde_Biological_E,8_ = 0
c238: -2.9494754604218755e7 Y_Biological_E,9_ + 1 Y_tilde_Biological_E,9_ = 0
c239: -2.9494754604218755e7 Y_Biological_E,9_ - 2.9494754604218755e7 Y_Biological_E,10_ + 1 Y_tilde_Biological_E,9_ = 0
c240: -2.9494754604218755e7 Y_Biological_E,10_ + 1 Y_tilde_Biological_E,10_ = 0
c241: -3.675731394979876e8 Y_GSK,1_ + 1 Y_tilde_GSK,1_ = 0
c242: -3.675731394979876e8 Y_GSK,1_ - 3.675731394979876e8 Y_GSK,2_ + 1 Y_tilde_GSK,1_ = 0
c243: -3.675731394979876e8 Y_GSK,1_ - 3.675731394979876e8 Y_GSK,2_ - 3.675731394979876e8 Y_GSK,3_ + 1 Y_tilde_GSK,1_ = 0
c244: -3.675731394979876e8 Y_GSK,1_ - 3.675731394979876e8 Y_GSK,2_ - 3.675731394979876e8 Y_GSK,3_ - 3.675731394979876e8 Y_GSK,4_ + 1 Y_tilde_GSK,1_ = 0
c245: -3.675731394979876e8 Y_GSK,1_ - 3.675731394979876e8 Y_GSK,2_ - 3.675731394979876e8 Y_GSK,3_ - 3.675731394979876e8 Y_GSK,4_ - 3.675731394979876e8 Y_GSK,5_ + 1 Y_tilde_GSK,1_ = 0
c246: -3.675731394979876e8 Y_GSK,2_ + 1 Y_tilde_GSK,2_ = 0
c247: -3.675731394979876e8 Y_GSK,2_ - 3.675731394979876e8 Y_GSK,3_ + 1 Y_tilde_GSK,2_ = 0
c248: -3.675731394979876e8 Y_GSK,2_ - 3.675731394979876e8 Y_GSK,3_ - 3.675731394979876e8 Y_GSK,4_ + 1 Y_tilde_GSK,2_ = 0
c249: -3.675731394979876e8 Y_GSK,2_ - 3.675731394979876e8 Y_GSK,3_ - 3.675731394979876e8 Y_GSK,4_ - 3.675731394979876e8 Y_GSK,5_ + 1 Y_tilde_GSK,2_ = 0
c250: -3.675731394979876e8 Y_GSK,2_ - 3.675731394979876e8 Y_GSK,3_ - 3.675731394979876e8 Y_GSK,4_ - 3.675731394979876e8 Y_GSK,5_ - 3.675731394979876e8 Y_GSK,6_ + 1 Y_tilde_GSK,2_ = 0
c251: -3.675731394979876e8 Y_GSK,3_ + 1 Y_tilde_GSK,3_ = 0
c252: -3.675731394979876e8 Y_GSK,3_ - 3.675731394979876e8 Y_GSK,4_ + 1 Y_tilde_GSK,3_ = 0
c253: -3.675731394979876e8 Y_GSK,3_ - 3.675731394979876e8 Y_GSK,4_ - 3.675731394979876e8 Y_GSK,5_ + 1 Y_tilde_GSK,3_ = 0
c254: -3.675731394979876e8 Y_GSK,3_ - 3.675731394979876e8 Y_GSK,4_ - 3.675731394979876e8 Y_GSK,5_ - 3.675731394979876e8 Y_GSK,6_ + 1 Y_tilde_GSK,3_ = 0
c255: -3.675731394979876e8 Y_GSK,3_ - 3.675731394979876e8 Y_GSK,4_ - 3.675731394979876e8 Y_GSK,5_ - 3.675731394979876e8 Y_GSK,6_ - 3.675731394979876e8 Y_GSK,7_ + 1 Y_tilde_GSK,3_ = 0
c256: -3.675731394979876e8 Y_GSK,4_ + 1 Y_tilde_GSK,4_ = 0
c257: -3.675731394979876e8 Y_GSK,4_ - 3.675731394979876e8 Y_GSK,5_ + 1 Y_tilde_GSK,4_ = 0
c258: -3.675731394979876e8 Y_GSK,4_ - 3.675731394979876e8 Y_GSK,5_ - 3.675731394979876e8 Y_GSK,6_ + 1 Y_tilde_GSK,4_ = 0
c259: -3.675731394979876e8 Y_GSK,4_ - 3.675731394979876e8 Y_GSK,5_ - 3.675731394979876e8 Y_GSK,6_ - 3.675731394979876e8 Y_GSK,7_ + 1 Y_tilde_GSK,4_ = 0
c260: -3.675731394979876e8 Y_GSK,4_ - 3.675731394979876e8 Y_GSK,5_ - 3.675731394979876e8 Y_GSK,6_ - 3.675731394979876e8 Y_GSK,7_ - 3.675731394979876e8 Y_GSK,8_ + 1 Y_tilde_GSK,4_ = 0
c261: -3.675731394979876e8 Y_GSK,5_ + 1 Y_tilde_GSK,5_ = 0
c262: -3.675731394979876e8 Y_GSK,5_ - 3.675731394979876e8 Y_GSK,6_ + 1 Y_tilde_GSK,5_ = 0
c263: -3.675731394979876e8 Y_GSK,5_ - 3.675731394979876e8 Y_GSK,6_ - 3.675731394979876e8 Y_GSK,7_ + 1 Y_tilde_GSK,5_ = 0
c264: -3.675731394979876e8 Y_GSK,5_ - 3.675731394979876e8 Y_GSK,6_ - 3.675731394979876e8 Y_GSK,7_ - 3.675731394979876e8 Y_GSK,8_ + 1 Y_tilde_GSK,5_ = 0
c265: -3.675731394979876e8 Y_GSK,5_ - 3.675731394979876e8 Y_GSK,6_ - 3.675731394979876e8 Y_GSK,7_ - 3.675731394979876e8 Y_GSK,8_ - 3.675731394979876e8 Y_GSK,9_ + 1 Y_tilde_GSK,5_ = 0
c266: -3.675731394979876e8 Y_GSK,6_ + 1 Y_tilde_GSK,6_ = 0
c267: -3.675731394979876e8 Y_GSK,6_ - 3.675731394979876e8 Y_GSK,7_ + 1 Y_tilde_GSK,6_ = 0
c268: -3.675731394979876e8 Y_GSK,6_ - 3.675731394979876e8 Y_GSK,7_ - 3.675731394979876e8 Y_GSK,8_ + 1 Y_tilde_GSK,6_ = 0
c269: -3.675731394979876e8 Y_GSK,6_ - 3.675731394979876e8 Y_GSK,7_ - 3.675731394979876e8 Y_GSK,8_ - 3.675731394979876e8 Y_GSK,9_ + 1 Y_tilde_GSK,6_ = 0
c270: -3.675731394979876e8 Y_GSK,6_ - 3.675731394979876e8 Y_GSK,7_ - 3.675731394979876e8 Y_GSK,8_ - 3.675731394979876e8 Y_GSK,9_ - 3.675731394979876e8 Y_GSK,10_ + 1 Y_tilde_GSK,6_ = 0
c271: -3.675731394979876e8 Y_GSK,7_ + 1 Y_tilde_GSK,7_ = 0
c272: -3.675731394979876e8 Y_GSK,7_ - 3.675731394979876e8 Y_GSK,8_ + 1 Y_tilde_GSK,7_ = 0
c273: -3.675731394979876e8 Y_GSK,7_ - 3.675731394979876e8 Y_GSK,8_ - 3.675731394979876e8 Y_GSK,9_ + 1 Y_tilde_GSK,7_ = 0
c274: -3.675731394979876e8 Y_GSK,7_ - 3.675731394979876e8 Y_GSK,8_ - 3.675731394979876e8 Y_GSK,9_ - 3.675731394979876e8 Y_GSK,10_ + 1 Y_tilde_GSK,7_ = 0
c275: -3.675731394979876e8 Y_GSK,8_ + 1 Y_tilde_GSK,8_ = 0
c276: -3.675731394979876e8 Y_GSK,8_ - 3.675731394979876e8 Y_GSK,9_ + 1 Y_tilde_GSK,8_ = 0
c277: -3.675731394979876e8 Y_GSK,8_ - 3.675731394979876e8 Y_GSK,9_ - 3.675731394979876e8 Y_GSK,10_ + 1 Y_tilde_GSK,8_ = 0
c278: -3.675731394979876e8 Y_GSK,9_ + 1 Y_tilde_GSK,9_ = 0
c279: -3.675731394979876e8 Y_GSK,9_ - 3.675731394979876e8 Y_GSK,10_ + 1 Y_tilde_GSK,9_ = 0
c280: -3.675731394979876e8 Y_GSK,10_ + 1 Y_tilde_GSK,10_ = 0
c281: -4.319700000000001e6 Y_Haffkine_Bio,1_ + 1 Y_tilde_Haffkine_Bio,1_ = 0
c282: -4.319700000000001e6 Y_Haffkine_Bio,1_ - 4.319700000000001e6 Y_Haffkine_Bio,2_ + 1 Y_tilde_Haffkine_Bio,1_ = 0
c283: -4.319700000000001e6 Y_Haffkine_Bio,1_ - 4.319700000000001e6 Y_Haffkine_Bio,2_ - 4.319700000000001e6 Y_Haffkine_Bio,3_ + 1 Y_tilde_Haffkine_Bio,1_ = 0
c284: -4.319700000000001e6 Y_Haffkine_Bio,1_ - 4.319700000000001e6 Y_Haffkine_Bio,2_ - 4.319700000000001e6 Y_Haffkine_Bio,3_ - 4.319700000000001e6 Y_Haffkine_Bio,4_ + 1 Y_tilde_Haffkine_Bio,1_ = 0
c285: -4.319700000000001e6 Y_Haffkine_Bio,1_ - 4.319700000000001e6 Y_Haffkine_Bio,2_ - 4.319700000000001e6 Y_Haffkine_Bio,3_ - 4.319700000000001e6 Y_Haffkine_Bio,4_ - 4.319700000000001e6 Y_Haffkine_Bio,5_ + 1 Y_tilde_Haffkine_Bio,1_ = 0
c286: -4.319700000000001e6 Y_Haffkine_Bio,2_ + 1 Y_tilde_Haffkine_Bio,2_ = 0
c287: -4.319700000000001e6 Y_Haffkine_Bio,2_ - 4.319700000000001e6 Y_Haffkine_Bio,3_ + 1 Y_tilde_Haffkine_Bio,2_ = 0
c288: -4.319700000000001e6 Y_Haffkine_Bio,2_ - 4.319700000000001e6 Y_Haffkine_Bio,3_ - 4.319700000000001e6 Y_Haffkine_Bio,4_ + 1 Y_tilde_Haffkine_Bio,2_ = 0
c289: -4.319700000000001e6 Y_Haffkine_Bio,2_ - 4.319700000000001e6 Y_Haffkine_Bio,3_ - 4.319700000000001e6 Y_Haffkine_Bio,4_ - 4.319700000000001e6 Y_Haffkine_Bio,5_ + 1 Y_tilde_Haffkine_Bio,2_ = 0
c290: -4.319700000000001e6 Y_Haffkine_Bio,2_ - 4.319700000000001e6 Y_Haffkine_Bio,3_ - 4.319700000000001e6 Y_Haffkine_Bio,4_ - 4.319700000000001e6 Y_Haffkine_Bio,5_ - 4.319700000000001e6 Y_Haffkine_Bio,6_ + 1 Y_tilde_Haffkine_Bio,2_ = 0
c291: -4.319700000000001e6 Y_Haffkine_Bio,3_ + 1 Y_tilde_Haffkine_Bio,3_ = 0
c292: -4.319700000000001e6 Y_Haffkine_Bio,3_ - 4.319700000000001e6 Y_Haffkine_Bio,4_ + 1 Y_tilde_Haffkine_Bio,3_ = 0
c293: -4.319700000000001e6 Y_Haffkine_Bio,3_ - 4.319700000000001e6 Y_Haffkine_Bio,4_ - 4.319700000000001e6 Y_Haffkine_Bio,5_ + 1 Y_tilde_Haffkine_Bio,3_ = 0
c294: -4.319700000000001e6 Y_Haffkine_Bio,3_ - 4.319700000000001e6 Y_Haffkine_Bio,4_ - 4.319700000000001e6 Y_Haffkine_Bio,5_ - 4.319700000000001e6 Y_Haffkine_Bio,6_ + 1 Y_tilde_Haffkine_Bio,3_ = 0
c295: -4.319700000000001e6 Y_Haffkine_Bio,3_ - 4.319700000000001e6 Y_Haffkine_Bio,4_ - 4.319700000000001e6 Y_Haffkine_Bio,5_ - 4.319700000000001e6 Y_Haffkine_Bio,6_ - 4.319700000000001e6 Y_Haffkine_Bio,7_ + 1 Y_tilde_Haffkine_Bio,3_ = 0
c296: -4.319700000000001e6 Y_Haffkine_Bio,4_ + 1 Y_tilde_Haffkine_Bio,4_ = 0
c297: -4.319700000000001e6 Y_Haffkine_Bio,4_ - 4.319700000000001e6 Y_Haffkine_Bio,5_ + 1 Y_tilde_Haffkine_Bio,4_ = 0
c298: -4.319700000000001e6 Y_Haffkine_Bio,4_ - 4.319700000000001e6 Y_Haffkine_Bio,5_ - 4.319700000000001e6 Y_Haffkine_Bio,6_ + 1 Y_tilde_Haffkine_Bio,4_ = 0
c299: -4.319700000000001e6 Y_Haffkine_Bio,4_ - 4.319700000000001e6 Y_Haffkine_Bio,5_ - 4.319700000000001e6 Y_Haffkine_Bio,6_ - 4.319700000000001e6 Y_Haffkine_Bio,7_ + 1 Y_tilde_Haffkine_Bio,4_ = 0
c300: -4.319700000000001e6 Y_Haffkine_Bio,4_ - 4.319700000000001e6 Y_Haffkine_Bio,5_ - 4.319700000000001e6 Y_Haffkine_Bio,6_ - 4.319700000000001e6 Y_Haffkine_Bio,7_ - 4.319700000000001e6 Y_Haffkine_Bio,8_ + 1 Y_tilde_Haffkine_Bio,4_ = 0
c301: -4.319700000000001e6 Y_Haffkine_Bio,5_ + 1 Y_tilde_Haffkine_Bio,5_ = 0
c302: -4.319700000000001e6 Y_Haffkine_Bio,5_ - 4.319700000000001e6 Y_Haffkine_Bio,6_ + 1 Y_tilde_Haffkine_Bio,5_ = 0
c303: -4.319700000000001e6 Y_Haffkine_Bio,5_ - 4.319700000000001e6 Y_Haffkine_Bio,6_ - 4.319700000000001e6 Y_Haffkine_Bio,7_ + 1 Y_tilde_Haffkine_Bio,5_ = 0
c304: -4.319700000000001e6 Y_Haffkine_Bio,5_ - 4.319700000000001e6 Y_Haffkine_Bio,6_ - 4.319700000000001e6 Y_Haffkine_Bio,7_ - 4.319700000000001e6 Y_Haffkine_Bio,8_ + 1 Y_tilde_Haffkine_Bio,5_ = 0
c305: -4.319700000000001e6 Y_Haffkine_Bio,5_ - 4.319700000000001e6 Y_Haffkine_Bio,6_ - 4.319700000000001e6 Y_Haffkine_Bio,7_ - 4.319700000000001e6 Y_Haffkine_Bio,8_ - 4.319700000000001e6 Y_Haffkine_Bio,9_ + 1 Y_tilde_Haffkine_Bio,5_ = 0
c306: -4.319700000000001e6 Y_Haffkine_Bio,6_ + 1 Y_tilde_Haffkine_Bio,6_ = 0
c307: -4.319700000000001e6 Y_Haffkine_Bio,6_ - 4.319700000000001e6 Y_Haffkine_Bio,7_ + 1 Y_tilde_Haffkine_Bio,6_ = 0
c308: -4.319700000000001e6 Y_Haffkine_Bio,6_ - 4.319700000000001e6 Y_Haffkine_Bio,7_ - 4.319700000000001e6 Y_Haffkine_Bio,8_ + 1 Y_tilde_Haffkine_Bio,6_ = 0
c309: -4.319700000000001e6 Y_Haffkine_Bio,6_ - 4.319700000000001e6 Y_Haffkine_Bio,7_ - 4.319700000000001e6 Y_Haffkine_Bio,8_ - 4.319700000000001e6 Y_Haffkine_Bio,9_ + 1 Y_tilde_Haffkine_Bio,6_ = 0
c310: -4.319700000000001e6 Y_Haffkine_Bio,6_ - 4.319700000000001e6 Y_Haffkine_Bio,7_ - 4.319700000000001e6 Y_Haffkine_Bio,8_ - 4.319700000000001e6 Y_Haffkine_Bio,9_ - 4.319700000000001e6 Y_Haffkine_Bio,10_ + 1 Y_tilde_Haffkine_Bio,6_ = 0
c311: -4.319700000000001e6 Y_Haffkine_Bio,7_ + 1 Y_tilde_Haffkine_Bio,7_ = 0
c312: -4.319700000000001e6 Y_Haffkine_Bio,7_ - 4.319700000000001e6 Y_Haffkine_Bio,8_ + 1 Y_tilde_Haffkine_Bio,7_ = 0
c313: -4.319700000000001e6 Y_Haffkine_Bio,7_ - 4.319700000000001e6 Y_Haffkine_Bio,8_ - 4.319700000000001e6 Y_Haffkine_Bio,9_ + 1 Y_tilde_Haffkine_Bio,7_ = 0
c314: -4.319700000000001e6 Y_Haffkine_Bio,7_ - 4.319700000000001e6 Y_Haffkine_Bio,8_ - 4.319700000000001e6 Y_Haffkine_Bio,9_ - 4.319700000000001e6 Y_Haffkine_Bio,10_ + 1 Y_tilde_Haffkine_Bio,7_ = 0
c315: -4.319700000000001e6 Y_Haffkine_Bio,8_ + 1 Y_tilde_Haffkine_Bio,8_ = 0
c316: -4.319700000000001e6 Y_Haffkine_Bio,8_ - 4.319700000000001e6 Y_Haffkine_Bio,9_ + 1 Y_tilde_Haffkine_Bio,8_ = 0
c317: -4.319700000000001e6 Y_Haffkine_Bio,8_ - 4.319700000000001e6 Y_Haffkine_Bio,9_ - 4.319700000000001e6 Y_Haffkine_Bio,10_ + 1 Y_tilde_Haffkine_Bio,8_ = 0
c318: -4.319700000000001e6 Y_Haffkine_Bio,9_ + 1 Y_tilde_Haffkine_Bio,9_ = 0
c319: -4.319700000000001e6 Y_Haffkine_Bio,9_ - 4.319700000000001e6 Y_Haffkine_Bio,10_ + 1 Y_tilde_Haffkine_Bio,9_ = 0
c320: -4.319700000000001e6 Y_Haffkine_Bio,10_ + 1 Y_tilde_Haffkine_Bio,10_ = 0
c321: -2.598352266927085e7 Y_LG_Chem,1_ + 1 Y_tilde_LG_Chem,1_ = 0
c322: -2.598352266927085e7 Y_LG_Chem,1_ - 2.598352266927085e7 Y_LG_Chem,2_ + 1 Y_tilde_LG_Chem,1_ = 0
c323: -2.598352266927085e7 Y_LG_Chem,1_ - 2.598352266927085e7 Y_LG_Chem,2_ - 2.598352266927085e7 Y_LG_Chem,3_ + 1 Y_tilde_LG_Chem,1_ = 0
c324: -2.598352266927085e7 Y_LG_Chem,1_ - 2.598352266927085e7 Y_LG_Chem,2_ - 2.598352266927085e7 Y_LG_Chem,3_ - 2.598352266927085e7 Y_LG_Chem,4_ + 1 Y_tilde_LG_Chem,1_ = 0
c325: -2.598352266927085e7 Y_LG_Chem,1_ - 2.598352266927085e7 Y_LG_Chem,2_ - 2.598352266927085e7 Y_LG_Chem,3_ - 2.598352266927085e7 Y_LG_Chem,4_ - 2.598352266927085e7 Y_LG_Chem,5_ + 1 Y_tilde_LG_Chem,1_ = 0
c326: -2.598352266927085e7 Y_LG_Chem,2_ + 1 Y_tilde_LG_Chem,2_ = 0
c327: -2.598352266927085e7 Y_LG_Chem,2_ - 2.598352266927085e7 Y_LG_Chem,3_ + 1 Y_tilde_LG_Chem,2_ = 0
c328: -2.598352266927085e7 Y_LG_Chem,2_ - 2.598352266927085e7 Y_LG_Chem,3_ - 2.598352266927085e7 Y_LG_Chem,4_ + 1 Y_tilde_LG_Chem,2_ = 0
c329: -2.598352266927085e7 Y_LG_Chem,2_ - 2.598352266927085e7 Y_LG_Chem,3_ - 2.598352266927085e7 Y_LG_Chem,4_ - 2.598352266927085e7 Y_LG_Chem,5_ + 1 Y_tilde_LG_Chem,2_ = 0
c330: -2.598352266927085e7 Y_LG_Chem,2_ - 2.598352266927085e7 Y_LG_Chem,3_ - 2.598352266927085e7 Y_LG_Chem,4_ - 2.598352266927085e7 Y_LG_Chem,5_ - 2.598352266927085e7 Y_LG_Chem,6_ + 1 Y_tilde_LG_Chem,2_ = 0
c331: -2.598352266927085e7 Y_LG_Chem,3_ + 1 Y_tilde_LG_Chem,3_ = 0
c332: -2.598352266927085e7 Y_LG_Chem,3_ - 2.598352266927085e7 Y_LG_Chem,4_ + 1 Y_tilde_LG_Chem,3_ = 0
c333: -2.598352266927085e7 Y_LG_Chem,3_ - 2.598352266927085e7 Y_LG_Chem,4_ - 2.598352266927085e7 Y_LG_Chem,5_ + 1 Y_tilde_LG_Chem,3_ = 0
c334: -2.598352266927085e7 Y_LG_Chem,3_ - 2.598352266927085e7 Y_LG_Chem,4_ - 2.598352266927085e7 Y_LG_Chem,5_ - 2.598352266927085e7 Y_LG_Chem,6_ + 1 Y_tilde_LG_Chem,3_ = 0
c335: -2.598352266927085e7 Y_LG_Chem,3_ - 2.598352266927085e7 Y_LG_Chem,4_ - 2.598352266927085e7 Y_LG_Chem,5_ - 2.598352266927085e7 Y_LG_Chem,6_ - 2.598352266927085e7 Y_LG_Chem,7_ + 1 Y_tilde_LG_Chem,3_ = 0
c336: -2.598352266927085e7 Y_LG_Chem,4_ + 1 Y_tilde_LG_Chem,4_ = 0
c337: -2.598352266927085e7 Y_LG_Chem,4_ - 2.598352266927085e7 Y_LG_Chem,5_ + 1 Y_tilde_LG_Chem,4_ = 0
c338: -2.598352266927085e7 Y_LG_Chem,4_ - 2.598352266927085e7 Y_LG_Chem,5_ - 2.598352266927085e7 Y_LG_Chem,6_ + 1 Y_tilde_LG_Chem,4_ = 0
c339: -2.598352266927085e7 Y_LG_Chem,4_ - 2.598352266927085e7 Y_LG_Chem,5_ - 2.598352266927085e7 Y_LG_Chem,6_ - 2.598352266927085e7 Y_LG_Chem,7_ + 1 Y_tilde_LG_Chem,4_ = 0
c340: -2.598352266927085e7 Y_LG_Chem,4_ - 2.598352266927085e7 Y_LG_Chem,5_ - 2.598352266927085e7 Y_LG_Chem,6_ - 2.598352266927085e7 Y_LG_Chem,7_ - 2.598352266927085e7 Y_LG_Chem,8_ + 1 Y_tilde_LG_Chem,4_ = 0
c341: -2.598352266927085e7 Y_LG_Chem,5_ + 1 Y_tilde_LG_Chem,5_ = 0
c342: -2.598352266927085e7 Y_LG_Chem,5_ - 2.598352266927085e7 Y_LG_Chem,6_ + 1 Y_tilde_LG_Chem,5_ = 0
c343: -2.598352266927085e7 Y_LG_Chem,5_ - 2.598352266927085e7 Y_LG_Chem,6_ - 2.598352266927085e7 Y_LG_Chem,7_ + 1 Y_tilde_LG_Chem,5_ = 0
c344: -2.598352266927085e7 Y_LG_Chem,5_ - 2.598352266927085e7 Y_LG_Chem,6_ - 2.598352266927085e7 Y_LG_Chem,7_ - 2.598352266927085e7 Y_LG_Chem,8_ + 1 Y_tilde_LG_Chem,5_ = 0
c345: -2.598352266927085e7 Y_LG_Chem,5_ - 2.598352266927085e7 Y_LG_Chem,6_ - 2.598352266927085e7 Y_LG_Chem,7_ - 2.598352266927085e7 Y_LG_Chem,8_ - 2.598352266927085e7 Y_LG_Chem,9_ + 1 Y_tilde_LG_Chem,5_ = 0
c346: -2.598352266927085e7 Y_LG_Chem,6_ + 1 Y_tilde_LG_Chem,6_ = 0
c347: -2.598352266927085e7 Y_LG_Chem,6_ - 2.598352266927085e7 Y_LG_Chem,7_ + 1 Y_tilde_LG_Chem,6_ = 0
c348: -2.598352266927085e7 Y_LG_Chem,6_ - 2.598352266927085e7 Y_LG_Chem,7_ - 2.598352266927085e7 Y_LG_Chem,8_ + 1 Y_tilde_LG_Chem,6_ = 0
c349: -2.598352266927085e7 Y_LG_Chem,6_ - 2.598352266927085e7 Y_LG_Chem,7_ - 2.598352266927085e7 Y_LG_Chem,8_ - 2.598352266927085e7 Y_LG_Chem,9_ + 1 Y_tilde_LG_Chem,6_ = 0
c350: -2.598352266927085e7 Y_LG_Chem,6_ - 2.598352266927085e7 Y_LG_Chem,7_ - 2.598352266927085e7 Y_LG_Chem,8_ - 2.598352266927085e7 Y_LG_Chem,9_ - 2.598352266927085e7 Y_LG_Chem,10_ + 1 Y_tilde_LG_Chem,6_ = 0
c351: -2.598352266927085e7 Y_LG_Chem,7_ + 1 Y_tilde_LG_Chem,7_ = 0
c352: -2.598352266927085e7 Y_LG_Chem,7_ - 2.598352266927085e7 Y_LG_Chem,8_ + 1 Y_tilde_LG_Chem,7_ = 0
c353: -2.598352266927085e7 Y_LG_Chem,7_ - 2.598352266927085e7 Y_LG_Chem,8_ - 2.598352266927085e7 Y_LG_Chem,9_ + 1 Y_tilde_LG_Chem,7_ = 0
c354: -2.598352266927085e7 Y_LG_Chem,7_ - 2.598352266927085e7 Y_LG_Chem,8_ - 2.598352266927085e7 Y_LG_Chem,9_ - 2.598352266927085e7 Y_LG_Chem,10_ + 1 Y_tilde_LG_Chem,7_ = 0
c355: -2.598352266927085e7 Y_LG_Chem,8_ + 1 Y_tilde_LG_Chem,8_ = 0
c356: -2.598352266927085e7 Y_LG_Chem,8_ - 2.598352266927085e7 Y_LG_Chem,9_ + 1 Y_tilde_LG_Chem,8_ = 0
c357: -2.598352266927085e7 Y_LG_Chem,8_ - 2.598352266927085e7 Y_LG_Chem,9_ - 2.598352266927085e7 Y_LG_Chem,10_ + 1 Y_tilde_LG_Chem,8_ = 0
c358: -2.598352266927085e7 Y_LG_Chem,9_ + 1 Y_tilde_LG_Chem,9_ = 0
c359: -2.598352266927085e7 Y_LG_Chem,9_ - 2.598352266927085e7 Y_LG_Chem,10_ + 1 Y_tilde_LG_Chem,9_ = 0
c360: -2.598352266927085e7 Y_LG_Chem,10_ + 1 Y_tilde_LG_Chem,10_ = 0
c361: -2.9279250000000004e7 Y_Merck_Sharp,1_ + 1 Y_tilde_Merck_Sharp,1_ = 0
c362: -2.9279250000000004e7 Y_Merck_Sharp,1_ - 2.9279250000000004e7 Y_Merck_Sharp,2_ + 1 Y_tilde_Merck_Sharp,1_ = 0
c363: -2.9279250000000004e7 Y_Merck_Sharp,1_ - 2.9279250000000004e7 Y_Merck_Sharp,2_ - 2.9279250000000004e7 Y_Merck_Sharp,3_ + 1 Y_tilde_Merck_Sharp,1_ = 0
c364: -2.9279250000000004e7 Y_Merck_Sharp,1_ - 2.9279250000000004e7 Y_Merck_Sharp,2_ - 2.9279250000000004e7 Y_Merck_Sharp,3_ - 2.9279250000000004e7 Y_Merck_Sharp,4_ + 1 Y_tilde_Merck_Sharp,1_ = 0
c365: -2.9279250000000004e7 Y_Merck_Sharp,1_ - 2.9279250000000004e7 Y_Merck_Sharp,2_ - 2.9279250000000004e7 Y_Merck_Sharp,3_ - 2.9279250000000004e7 Y_Merck_Sharp,4_ - 2.9279250000000004e7 Y_Merck_Sharp,5_ + 1 Y_tilde_Merck_Sharp,1_ = 0
c366: -2.9279250000000004e7 Y_Merck_Sharp,2_ + 1 Y_tilde_Merck_Sharp,2_ = 0
c367: -2.9279250000000004e7 Y_Merck_Sharp,2_ - 2.9279250000000004e7 Y_Merck_Sharp,3_ + 1 Y_tilde_Merck_Sharp,2_ = 0
c368: -2.9279250000000004e7 Y_Merck_Sharp,2_ - 2.9279250000000004e7 Y_Merck_Sharp,3_ - 2.9279250000000004e7 Y_Merck_Sharp,4_ + 1 Y_tilde_Merck_Sharp,2_ = 0
c369: -2.9279250000000004e7 Y_Merck_Sharp,2_ - 2.9279250000000004e7 Y_Merck_Sharp,3_ - 2.9279250000000004e7 Y_Merck_Sharp,4_ - 2.9279250000000004e7 Y_Merck_Sharp,5_ + 1 Y_tilde_Merck_Sharp,2_ = 0
c370: -2.9279250000000004e7 Y_Merck_Sharp,2_ - 2.9279250000000004e7 Y_Merck_Sharp,3_ - 2.9279250000000004e7 Y_Merck_Sharp,4_ - 2.9279250000000004e7 Y_Merck_Sharp,5_ - 2.9279250000000004e7 Y_Merck_Sharp,6_ + 1 Y_tilde_Merck_Sharp,2_ = 0
c371: -2.9279250000000004e7 Y_Merck_Sharp,3_ + 1 Y_tilde_Merck_Sharp,3_ = 0
c372: -2.9279250000000004e7 Y_Merck_Sharp,3_ - 2.9279250000000004e7 Y_Merck_Sharp,4_ + 1 Y_tilde_Merck_Sharp,3_ = 0
c373: -2.9279250000000004e7 Y_Merck_Sharp,3_ - 2.9279250000000004e7 Y_Merck_Sharp,4_ - 2.9279250000000004e7 Y_Merck_Sharp,5_ + 1 Y_tilde_Merck_Sharp,3_ = 0
c374: -2.9279250000000004e7 Y_Merck_Sharp,3_ - 2.9279250000000004e7 Y_Merck_Sharp,4_ - 2.9279250000000004e7 Y_Merck_Sharp,5_ - 2.9279250000000004e7 Y_Merck_Sharp,6_ + 1 Y_tilde_Merck_Sharp,3_ = 0
c375: -2.9279250000000004e7 Y_Merck_Sharp,3_ - 2.9279250000000004e7 Y_Merck_Sharp,4_ - 2.9279250000000004e7 Y_Merck_Sharp,5_ - 2.9279250000000004e7 Y_Merck_Sharp,6_ - 2.9279250000000004e7 Y_Merck_Sharp,7_ + 1 Y_tilde_Merck_Sharp,3_ = 0
c376: -2.9279250000000004e7 Y_Merck_Sharp,4_ + 1 Y_tilde_Merck_Sharp,4_ = 0
c377: -2.9279250000000004e7 Y_Merck_Sharp,4_ - 2.9279250000000004e7 Y_Merck_Sharp,5_ + 1 Y_tilde_Merck_Sharp,4_ = 0
c378: -2.9279250000000004e7 Y_Merck_Sharp,4_ - 2.9279250000000004e7 Y_Merck_Sharp,5_ - 2.9279250000000004e7 Y_Merck_Sharp,6_ + 1 Y_tilde_Merck_Sharp,4_ = 0
c379: -2.9279250000000004e7 Y_Merck_Sharp,4_ - 2.9279250000000004e7 Y_Merck_Sharp,5_ - 2.9279250000000004e7 Y_Merck_Sharp,6_ - 2.9279250000000004e7 Y_Merck_Sharp,7_ + 1 Y_tilde_Merck_Sharp,4_ = 0
c380: -2.9279250000000004e7 Y_Merck_Sharp,4_ - 2.9279250000000004e7 Y_Merck_Sharp,5_ - 2.9279250000000004e7 Y_Merck_Sharp,6_ - 2.9279250000000004e7 Y_Merck_Sharp,7_ - 2.9279250000000004e7 Y_Merck_Sharp,8_ + 1 Y_tilde_Merck_Sharp,4_ = 0
c381: -2.9279250000000004e7 Y_Merck_Sharp,5_ + 1 Y_tilde_Merck_Sharp,5_ = 0
c382: -2.9279250000000004e7 Y_Merck_Sharp,5_ - 2.9279250000000004e7 Y_Merck_Sharp,6_ + 1 Y_tilde_Merck_Sharp,5_ = 0
c383: -2.9279250000000004e7 Y_Merck_Sharp,5_ - 2.9279250000000004e7 Y_Merck_Sharp,6_ - 2.9279250000000004e7 Y_Merck_Sharp,7_ + 1 Y_tilde_Merck_Sharp,5_ = 0
c384: -2.9279250000000004e7 Y_Merck_Sharp,5_ - 2.9279250000000004e7 Y_Merck_Sharp,6_ - 2.9279250000000004e7 Y_Merck_Sharp,7_ - 2.9279250000000004e7 Y_Merck_Sharp,8_ + 1 Y_tilde_Merck_Sharp,5_ = 0
c385: -2.9279250000000004e7 Y_Merck_Sharp,5_ - 2.9279250000000004e7 Y_Merck_Sharp,6_ - 2.9279250000000004e7 Y_Merck_Sharp,7_ - 2.9279250000000004e7 Y_Merck_Sharp,8_ - 2.9279250000000004e7 Y_Merck_Sharp,9_ + 1 Y_tilde_Merck_Sharp,5_ = 0
c386: -2.9279250000000004e7 Y_Merck_Sharp,6_ + 1 Y_tilde_Merck_Sharp,6_ = 0
c387: -2.9279250000000004e7 Y_Merck_Sharp,6_ - 2.9279250000000004e7 Y_Merck_Sharp,7_ + 1 Y_tilde_Merck_Sharp,6_ = 0
c388: -2.9279250000000004e7 Y_Merck_Sharp,6_ - 2.9279250000000004e7 Y_Merck_Sharp,7_ - 2.9279250000000004e7 Y_Merck_Sharp,8_ + 1 Y_tilde_Merck_Sharp,6_ = 0
c389: -2.9279250000000004e7 Y_Merck_Sharp,6_ - 2.9279250000000004e7 Y_Merck_Sharp,7_ - 2.9279250000000004e7 Y_Merck_Sharp,8_ - 2.9279250000000004e7 Y_Merck_Sharp,9_ + 1 Y_tilde_Merck_Sharp,6_ = 0
c390: -2.9279250000000004e7 Y_Merck_Sharp,6_ - 2.9279250000000004e7 Y_Merck_Sharp,7_ - 2.9279250000000004e7 Y_Merck_Sharp,8_ - 2.9279250000000004e7 Y_Merck_Sharp,9_ - 2.9279250000000004e7 Y_Merck_Sharp,10_ + 1 Y_tilde_Merck_Sharp,6_ = 0
c391: -2.9279250000000004e7 Y_Merck_Sharp,7_ + 1 Y_tilde_Merck_Sharp,7_ = 0
c392: -2.9279250000000004e7 Y_Merck_Sharp,7_ - 2.9279250000000004e7 Y_Merck_Sharp,8_ + 1 Y_tilde_Merck_Sharp,7_ = 0
c393: -2.9279250000000004e7 Y_Merck_Sharp,7_ - 2.9279250000000004e7 Y_Merck_Sharp,8_ - 2.9279250000000004e7 Y_Merck_Sharp,9_ + 1 Y_tilde_Merck_Sharp,7_ = 0
c394: -2.9279250000000004e7 Y_Merck_Sharp,7_ - 2.9279250000000004e7 Y_Merck_Sharp,8_ - 2.9279250000000004e7 Y_Merck_Sharp,9_ - 2.9279250000000004e7 Y_Merck_Sharp,10_ + 1 Y_tilde_Merck_Sharp,7_ = 0
c395: -2.9279250000000004e7 Y_Merck_Sharp,8_ + 1 Y_tilde_Merck_Sharp,8_ = 0
c396: -2.9279250000000004e7 Y_Merck_Sharp,8_ - 2.9279250000000004e7 Y_Merck_Sharp,9_ + 1 Y_tilde_Merck_Sharp,8_ = 0
c397: -2.9279250000000004e7 Y_Merck_Sharp,8_ - 2.9279250000000004e7 Y_Merck_Sharp,9_ - 2.9279250000000004e7 Y_Merck_Sharp,10_ + 1 Y_tilde_Merck_Sharp,8_ = 0
c398: -2.9279250000000004e7 Y_Merck_Sharp,9_ + 1 Y_tilde_Merck_Sharp,9_ = 0
c399: -2.9279250000000004e7 Y_Merck_Sharp,9_ - 2.9279250000000004e7 Y_Merck_Sharp,10_ + 1 Y_tilde_Merck_Sharp,9_ = 0
c400: -2.9279250000000004e7 Y_Merck_Sharp,10_ + 1 Y_tilde_Merck_Sharp,10_ = 0
c401: -2.0448986250000015e7 Y_Panacea_Biotec,1_ + 1 Y_tilde_Panacea_Biotec,1_ = 0
c402: -2.0448986250000015e7 Y_Panacea_Biotec,1_ - 2.0448986250000015e7 Y_Panacea_Biotec,2_ + 1 Y_tilde_Panacea_Biotec,1_ = 0
c403: -2.0448986250000015e7 Y_Panacea_Biotec,1_ - 2.0448986250000015e7 Y_Panacea_Biotec,2_ - 2.0448986250000015e7 Y_Panacea_Biotec,3_ + 1 Y_tilde_Panacea_Biotec,1_ = 0
c404: -2.0448986250000015e7 Y_Panacea_Biotec,1_ - 2.0448986250000015e7 Y_Panacea_Biotec,2_ - 2.0448986250000015e7 Y_Panacea_Biotec,3_ - 2.0448986250000015e7 Y_Panacea_Biotec,4_ + 1 Y_tilde_Panacea_Biotec,1_ = 0
c405: -2.0448986250000015e7 Y_Panacea_Biotec,1_ - 2.0448986250000015e7 Y_Panacea_Biotec,2_ - 2.0448986250000015e7 Y_Panacea_Biotec,3_ - 2.0448986250000015e7 Y_Panacea_Biotec,4_ - 2.0448986250000015e7 Y_Panacea_Biotec,5_ + 1 Y_tilde_Panacea_Biotec,1_ = 0
c406: -2.0448986250000015e7 Y_Panacea_Biotec,2_ + 1 Y_tilde_Panacea_Biotec,2_ = 0
c407: -2.0448986250000015e7 Y_Panacea_Biotec,2_ - 2.0448986250000015e7 Y_Panacea_Biotec,3_ + 1 Y_tilde_Panacea_Biotec,2_ = 0
c408: -2.0448986250000015e7 Y_Panacea_Biotec,2_ - 2.0448986250000015e7 Y_Panacea_Biotec,3_ - 2.0448986250000015e7 Y_Panacea_Biotec,4_ + 1 Y_tilde_Panacea_Biotec,2_ = 0
c409: -2.0448986250000015e7 Y_Panacea_Biotec,2_ - 2.0448986250000015e7 Y_Panacea_Biotec,3_ - 2.0448986250000015e7 Y_Panacea_Biotec,4_ - 2.0448986250000015e7 Y_Panacea_Biotec,5_ + 1 Y_tilde_Panacea_Biotec,2_ = 0
c410: -2.0448986250000015e7 Y_Panacea_Biotec,2_ - 2.0448986250000015e7 Y_Panacea_Biotec,3_ - 2.0448986250000015e7 Y_Panacea_Biotec,4_ - 2.0448986250000015e7 Y_Panacea_Biotec,5_ - 2.0448986250000015e7 Y_Panacea_Biotec,6_ + 1 Y_tilde_Panacea_Biotec,2_ = 0
c411: -2.0448986250000015e7 Y_Panacea_Biotec,3_ + 1 Y_tilde_Panacea_Biotec,3_ = 0
c412: -2.0448986250000015e7 Y_Panacea_Biotec,3_ - 2.0448986250000015e7 Y_Panacea_Biotec,4_ + 1 Y_tilde_Panacea_Biotec,3_ = 0
c413: -2.0448986250000015e7 Y_Panacea_Biotec,3_ - 2.0448986250000015e7 Y_Panacea_Biotec,4_ - 2.0448986250000015e7 Y_Panacea_Biotec,5_ + 1 Y_tilde_Panacea_Biotec,3_ = 0
c414: -2.0448986250000015e7 Y_Panacea_Biotec,3_ - 2.0448986250000015e7 Y_Panacea_Biotec,4_ - 2.0448986250000015e7 Y_Panacea_Biotec,5_ - 2.0448986250000015e7 Y_Panacea_Biotec,6_ + 1 Y_tilde_Panacea_Biotec,3_ = 0
c415: -2.0448986250000015e7 Y_Panacea_Biotec,3_ - 2.0448986250000015e7 Y_Panacea_Biotec,4_ - 2.0448986250000015e7 Y_Panacea_Biotec,5_ - 2.0448986250000015e7 Y_Panacea_Biotec,6_ - 2.0448986250000015e7 Y_Panacea_Biotec,7_ + 1 Y_tilde_Panacea_Biotec,3_ = 0
c416: -2.0448986250000015e7 Y_Panacea_Biotec,4_ + 1 Y_tilde_Panacea_Biotec,4_ = 0
c417: -2.0448986250000015e7 Y_Panacea_Biotec,4_ - 2.0448986250000015e7 Y_Panacea_Biotec,5_ + 1 Y_tilde_Panacea_Biotec,4_ = 0
c418: -2.0448986250000015e7 Y_Panacea_Biotec,4_ - 2.0448986250000015e7 Y_Panacea_Biotec,5_ - 2.0448986250000015e7 Y_Panacea_Biotec,6_ + 1 Y_tilde_Panacea_Biotec,4_ = 0
c419: -2.0448986250000015e7 Y_Panacea_Biotec,4_ - 2.0448986250000015e7 Y_Panacea_Biotec,5_ - 2.0448986250000015e7 Y_Panacea_Biotec,6_ - 2.0448986250000015e7 Y_Panacea_Biotec,7_ + 1 Y_tilde_Panacea_Biotec,4_ = 0
c420: -2.0448986250000015e7 Y_Panacea_Biotec,4_ - 2.0448986250000015e7 Y_Panacea_Biotec,5_ - 2.0448986250000015e7 Y_Panacea_Biotec,6_ - 2.0448986250000015e7 Y_Panacea_Biotec,7_ - 2.0448986250000015e7 Y_Panacea_Biotec,8_ + 1 Y_tilde_Panacea_Biotec,4_ = 0
c421: -2.0448986250000015e7 Y_Panacea_Biotec,5_ + 1 Y_tilde_Panacea_Biotec,5_ = 0
c422: -2.0448986250000015e7 Y_Panacea_Biotec,5_ - 2.0448986250000015e7 Y_Panacea_Biotec,6_ + 1 Y_tilde_Panacea_Biotec,5_ = 0
c423: -2.0448986250000015e7 Y_Panacea_Biotec,5_ - 2.0448986250000015e7 Y_Panacea_Biotec,6_ - 2.0448986250000015e7 Y_Panacea_Biotec,7_ + 1 Y_tilde_Panacea_Biotec,5_ = 0
c424: -2.0448986250000015e7 Y_Panacea_Biotec,5_ - 2.0448986250000015e7 Y_Panacea_Biotec,6_ - 2.0448986250000015e7 Y_Panacea_Biotec,7_ - 2.0448986250000015e7 Y_Panacea_Biotec,8_ + 1 Y_tilde_Panacea_Biotec,5_ = 0
c425: -2.0448986250000015e7 Y_Panacea_Biotec,5_ - 2.0448986250000015e7 Y_Panacea_Biotec,6_ - 2.0448986250000015e7 Y_Panacea_Biotec,7_ - 2.0448986250000015e7 Y_Panacea_Biotec,8_ - 2.0448986250000015e7 Y_Panacea_Biotec,9_ + 1 Y_tilde_Panacea_Biotec,5_ = 0
c426: -2.0448986250000015e7 Y_Panacea_Biotec,6_ + 1 Y_tilde_Panacea_Biotec,6_ = 0
c427: -2.0448986250000015e7 Y_Panacea_Biotec,6_ - 2.0448986250000015e7 Y_Panacea_Biotec,7_ + 1 Y_tilde_Panacea_Biotec,6_ = 0
c428: -2.0448986250000015e7 Y_Panacea_Biotec,6_ - 2.0448986250000015e7 Y_Panacea_Biotec,7_ - 2.0448986250000015e7 Y_Panacea_Biotec,8_ + 1 Y_tilde_Panacea_Biotec,6_ = 0
c429: -2.0448986250000015e7 Y_Panacea_Biotec,6_ - 2.0448986250000015e7 Y_Panacea_Biotec,7_ - 2.0448986250000015e7 Y_Panacea_Biotec,8_ - 2.0448986250000015e7 Y_Panacea_Biotec,9_ + 1 Y_tilde_Panacea_Biotec,6_ = 0
c430: -2.0448986250000015e7 Y_Panacea_Biotec,6_ - 2.0448986250000015e7 Y_Panacea_Biotec,7_ - 2.0448986250000015e7 Y_Panacea_Biotec,8_ - 2.0448986250000015e7 Y_Panacea_Biotec,9_ - 2.0448986250000015e7 Y_Panacea_Biotec,10_ + 1 Y_tilde_Panacea_Biotec,6_ = 0
c431: -2.0448986250000015e7 Y_Panacea_Biotec,7_ + 1 Y_tilde_Panacea_Biotec,7_ = 0
c432: -2.0448986250000015e7 Y_Panacea_Biotec,7_ - 2.0448986250000015e7 Y_Panacea_Biotec,8_ + 1 Y_tilde_Panacea_Biotec,7_ = 0
c433: -2.0448986250000015e7 Y_Panacea_Biotec,7_ - 2.0448986250000015e7 Y_Panacea_Biotec,8_ - 2.0448986250000015e7 Y_Panacea_Biotec,9_ + 1 Y_tilde_Panacea_Biotec,7_ = 0
c434: -2.0448986250000015e7 Y_Panacea_Biotec,7_ - 2.0448986250000015e7 Y_Panacea_Biotec,8_ - 2.0448986250000015e7 Y_Panacea_Biotec,9_ - 2.0448986250000015e7 Y_Panacea_Biotec,10_ + 1 Y_tilde_Panacea_Biotec,7_ = 0
c435: -2.0448986250000015e7 Y_Panacea_Biotec,8_ + 1 Y_tilde_Panacea_Biotec,8_ = 0
c436: -2.0448986250000015e7 Y_Panacea_Biotec,8_ - 2.0448986250000015e7 Y_Panacea_Biotec,9_ + 1 Y_tilde_Panacea_Biotec,8_ = 0
c437: -2.0448986250000015e7 Y_Panacea_Biotec,8_ - 2.0448986250000015e7 Y_Panacea_Biotec,9_ - 2.0448986250000015e7 Y_Panacea_Biotec,10_ + 1 Y_tilde_Panacea_Biotec,8_ = 0
c438: -2.0448986250000015e7 Y_Panacea_Biotec,9_ + 1 Y_tilde_Panacea_Biotec,9_ = 0
c439: -2.0448986250000015e7 Y_Panacea_Biotec,9_ - 2.0448986250000015e7 Y_Panacea_Biotec,10_ + 1 Y_tilde_Panacea_Biotec,9_ = 0
c440: -2.0448986250000015e7 Y_Panacea_Biotec,10_ + 1 Y_tilde_Panacea_Biotec,10_ = 0
c441: -1.5975940699869809e6 Y_PT_Bio,1_ + 1 Y_tilde_PT_Bio,1_ = 0
c442: -1.5975940699869809e6 Y_PT_Bio,1_ - 1.5975940699869809e6 Y_PT_Bio,2_ + 1 Y_tilde_PT_Bio,1_ = 0
c443: -1.5975940699869809e6 Y_PT_Bio,1_ - 1.5975940699869809e6 Y_PT_Bio,2_ - 1.5975940699869809e6 Y_PT_Bio,3_ + 1 Y_tilde_PT_Bio,1_ = 0
c444: -1.5975940699869809e6 Y_PT_Bio,1_ - 1.5975940699869809e6 Y_PT_Bio,2_ - 1.5975940699869809e6 Y_PT_Bio,3_ - 1.5975940699869809e6 Y_PT_Bio,4_ + 1 Y_tilde_PT_Bio,1_ = 0
c445: -1.5975940699869809e6 Y_PT_Bio,1_ - 1.5975940699869809e6 Y_PT_Bio,2_ - 1.5975940699869809e6 Y_PT_Bio,3_ - 1.5975940699869809e6 Y_PT_Bio,4_ - 1.5975940699869809e6 Y_PT_Bio,5_ + 1 Y_tilde_PT_Bio,1_ = 0
c446: -1.5975940699869809e6 Y_PT_Bio,2_ + 1 Y_tilde_PT_Bio,2_ = 0
c447: -1.5975940699869809e6 Y_PT_Bio,2_ - 1.5975940699869809e6 Y_PT_Bio,3_ + 1 Y_tilde_PT_Bio,2_ = 0
c448: -1.5975940699869809e6 Y_PT_Bio,2_ - 1.5975940699869809e6 Y_PT_Bio,3_ - 1.5975940699869809e6 Y_PT_Bio,4_ + 1 Y_tilde_PT_Bio,2_ = 0
c449: -1.5975940699869809e6 Y_PT_Bio,2_ - 1.5975940699869809e6 Y_PT_Bio,3_ - 1.5975940699869809e6 Y_PT_Bio,4_ - 1.5975940699869809e6 Y_PT_Bio,5_ + 1 Y_tilde_PT_Bio,2_ = 0
c450: -1.5975940699869809e6 Y_PT_Bio,2_ - 1.5975940699869809e6 Y_PT_Bio,3_ - 1.5975940699869809e6 Y_PT_Bio,4_ - 1.5975940699869809e6 Y_PT_Bio,5_ - 1.5975940699869809e6 Y_PT_Bio,6_ + 1 Y_tilde_PT_Bio,2_ = 0
c451: -1.5975940699869809e6 Y_PT_Bio,3_ + 1 Y_tilde_PT_Bio,3_ = 0
c452: -1.5975940699869809e6 Y_PT_Bio,3_ - 1.5975940699869809e6 Y_PT_Bio,4_ + 1 Y_tilde_PT_Bio,3_ = 0
c453: -1.5975940699869809e6 Y_PT_Bio,3_ - 1.5975940699869809e6 Y_PT_Bio,4_ - 1.5975940699869809e6 Y_PT_Bio,5_ + 1 Y_tilde_PT_Bio,3_ = 0
c454: -1.5975940699869809e6 Y_PT_Bio,3_ - 1.5975940699869809e6 Y_PT_Bio,4_ - 1.5975940699869809e6 Y_PT_Bio,5_ - 1.5975940699869809e6 Y_PT_Bio,6_ + 1 Y_tilde_PT_Bio,3_ = 0
c455: -1.5975940699869809e6 Y_PT_Bio,3_ - 1.5975940699869809e6 Y_PT_Bio,4_ - 1.5975940699869809e6 Y_PT_Bio,5_ - 1.5975940699869809e6 Y_PT_Bio,6_ - 1.5975940699869809e6 Y_PT_Bio,7_ + 1 Y_tilde_PT_Bio,3_ = 0
c456: -1.5975940699869809e6 Y_PT_Bio,4_ + 1 Y_tilde_PT_Bio,4_ = 0
c457: -1.5975940699869809e6 Y_PT_Bio,4_ - 1.5975940699869809e6 Y_PT_Bio,5_ + 1 Y_tilde_PT_Bio,4_ = 0
c458: -1.5975940699869809e6 Y_PT_Bio,4_ - 1.5975940699869809e6 Y_PT_Bio,5_ - 1.5975940699869809e6 Y_PT_Bio,6_ + 1 Y_tilde_PT_Bio,4_ = 0
c459: -1.5975940699869809e6 Y_PT_Bio,4_ - 1.5975940699869809e6 Y_PT_Bio,5_ - 1.5975940699869809e6 Y_PT_Bio,6_ - 1.5975940699869809e6 Y_PT_Bio,7_ + 1 Y_tilde_PT_Bio,4_ = 0
c460: -1.5975940699869809e6 Y_PT_Bio,4_ - 1.5975940699869809e6 Y_PT_Bio,5_ - 1.5975940699869809e6 Y_PT_Bio,6_ - 1.5975940699869809e6 Y_PT_Bio,7_ - 1.5975940699869809e6 Y_PT_Bio,8_ + 1 Y_tilde_PT_Bio,4_ = 0
c461: -1.5975940699869809e6 Y_PT_Bio,5_ + 1 Y_tilde_PT_Bio,5_ = 0
c462: -1.5975940699869809e6 Y_PT_Bio,5_ - 1.5975940699869809e6 Y_PT_Bio,6_ + 1 Y_tilde_PT_Bio,5_ = 0
c463: -1.5975940699869809e6 Y_PT_Bio,5_ - 1.5975940699869809e6 Y_PT_Bio,6_ - 1.5975940699869809e6 Y_PT_Bio,7_ + 1 Y_tilde_PT_Bio,5_ = 0
c464: -1.5975940699869809e6 Y_PT_Bio,5_ - 1.5975940699869809e6 Y_PT_Bio,6_ - 1.5975940699869809e6 Y_PT_Bio,7_ - 1.5975940699869809e6 Y_PT_Bio,8_ + 1 Y_tilde_PT_Bio,5_ = 0
c465: -1.5975940699869809e6 Y_PT_Bio,5_ - 1.5975940699869809e6 Y_PT_Bio,6_ - 1.5975940699869809e6 Y_PT_Bio,7_ - 1.5975940699869809e6 Y_PT_Bio,8_ - 1.5975940699869809e6 Y_PT_Bio,9_ + 1 Y_tilde_PT_Bio,5_ = 0
c466: -1.5975940699869809e6 Y_PT_Bio,6_ + 1 Y_tilde_PT_Bio,6_ = 0
c467: -1.5975940699869809e6 Y_PT_Bio,6_ - 1.5975940699869809e6 Y_PT_Bio,7_ + 1 Y_tilde_PT_Bio,6_ = 0
c468: -1.5975940699869809e6 Y_PT_Bio,6_ - 1.5975940699869809e6 Y_PT_Bio,7_ - 1.5975940699869809e6 Y_PT_Bio,8_ + 1 Y_tilde_PT_Bio,6_ = 0
c469: -1.5975940699869809e6 Y_PT_Bio,6_ - 1.5975940699869809e6 Y_PT_Bio,7_ - 1.5975940699869809e6 Y_PT_Bio,8_ - 1.5975940699869809e6 Y_PT_Bio,9_ + 1 Y_tilde_PT_Bio,6_ = 0
c470: -1.5975940699869809e6 Y_PT_Bio,6_ - 1.5975940699869809e6 Y_PT_Bio,7_ - 1.5975940699869809e6 Y_PT_Bio,8_ - 1.5975940699869809e6 Y_PT_Bio,9_ - 1.5975940699869809e6 Y_PT_Bio,10_ + 1 Y_tilde_PT_Bio,6_ = 0
c471: -1.5975940699869809e6 Y_PT_Bio,7_ + 1 Y_tilde_PT_Bio,7_ = 0
c472: -1.5975940699869809e6 Y_PT_Bio,7_ - 1.5975940699869809e6 Y_PT_Bio,8_ + 1 Y_tilde_PT_Bio,7_ = 0
c473: -1.5975940699869809e6 Y_PT_Bio,7_ - 1.5975940699869809e6 Y_PT_Bio,8_ - 1.5975940699869809e6 Y_PT_Bio,9_ + 1 Y_tilde_PT_Bio,7_ = 0
c474: -1.5975940699869809e6 Y_PT_Bio,7_ - 1.5975940699869809e6 Y_PT_Bio,8_ - 1.5975940699869809e6 Y_PT_Bio,9_ - 1.5975940699869809e6 Y_PT_Bio,10_ + 1 Y_tilde_PT_Bio,7_ = 0
c475: -1.5975940699869809e6 Y_PT_Bio,8_ + 1 Y_tilde_PT_Bio,8_ = 0
c476: -1.5975940699869809e6 Y_PT_Bio,8_ - 1.5975940699869809e6 Y_PT_Bio,9_ + 1 Y_tilde_PT_Bio,8_ = 0
c477: -1.5975940699869809e6 Y_PT_Bio,8_ - 1.5975940699869809e6 Y_PT_Bio,9_ - 1.5975940699869809e6 Y_PT_Bio,10_ + 1 Y_tilde_PT_Bio,8_ = 0
c478: -1.5975940699869809e6 Y_PT_Bio,9_ + 1 Y_tilde_PT_Bio,9_ = 0
c479: -1.5975940699869809e6 Y_PT_Bio,9_ - 1.5975940699869809e6 Y_PT_Bio,10_ + 1 Y_tilde_PT_Bio,9_ = 0
c480: -1.5975940699869809e6 Y_PT_Bio,10_ + 1 Y_tilde_PT_Bio,10_ = 0
c481: -8.432458449479176e7 Y_Sanofi,1_ + 1 Y_tilde_Sanofi,1_ = 0
c482: -8.432458449479176e7 Y_Sanofi,1_ - 8.432458449479176e7 Y_Sanofi,2_ + 1 Y_tilde_Sanofi,1_ = 0
c483: -8.432458449479176e7 Y_Sanofi,1_ - 8.432458449479176e7 Y_Sanofi,2_ - 8.432458449479176e7 Y_Sanofi,3_ + 1 Y_tilde_Sanofi,1_ = 0
c484: -8.432458449479176e7 Y_Sanofi,1_ - 8.432458449479176e7 Y_Sanofi,2_ - 8.432458449479176e7 Y_Sanofi,3_ - 8.432458449479176e7 Y_Sanofi,4_ + 1 Y_tilde_Sanofi,1_ = 0
c485: -8.432458449479176e7 Y_Sanofi,1_ - 8.432458449479176e7 Y_Sanofi,2_ - 8.432458449479176e7 Y_Sanofi,3_ - 8.432458449479176e7 Y_Sanofi,4_ - 8.432458449479176e7 Y_Sanofi,5_ + 1 Y_tilde_Sanofi,1_ = 0
c486: -8.432458449479176e7 Y_Sanofi,2_ + 1 Y_tilde_Sanofi,2_ = 0
c487: -8.432458449479176e7 Y_Sanofi,2_ - 8.432458449479176e7 Y_Sanofi,3_ + 1 Y_tilde_Sanofi,2_ = 0
c488: -8.432458449479176e7 Y_Sanofi,2_ - 8.432458449479176e7 Y_Sanofi,3_ - 8.432458449479176e7 Y_Sanofi,4_ + 1 Y_tilde_Sanofi,2_ = 0
c489: -8.432458449479176e7 Y_Sanofi,2_ - 8.432458449479176e7 Y_Sanofi,3_ - 8.432458449479176e7 Y_Sanofi,4_ - 8.432458449479176e7 Y_Sanofi,5_ + 1 Y_tilde_Sanofi,2_ = 0
c490: -8.432458449479176e7 Y_Sanofi,2_ - 8.432458449479176e7 Y_Sanofi,3_ - 8.432458449479176e7 Y_Sanofi,4_ - 8.432458449479176e7 Y_Sanofi,5_ - 8.432458449479176e7 Y_Sanofi,6_ + 1 Y_tilde_Sanofi,2_ = 0
c491: -8.432458449479176e7 Y_Sanofi,3_ + 1 Y_tilde_Sanofi,3_ = 0
c492: -8.432458449479176e7 Y_Sanofi,3_ - 8.432458449479176e7 Y_Sanofi,4_ + 1 Y_tilde_Sanofi,3_ = 0
c493: -8.432458449479176e7 Y_Sanofi,3_ - 8.432458449479176e7 Y_Sanofi,4_ - 8.432458449479176e7 Y_Sanofi,5_ + 1 Y_tilde_Sanofi,3_ = 0
c494: -8.432458449479176e7 Y_Sanofi,3_ - 8.432458449479176e7 Y_Sanofi,4_ - 8.432458449479176e7 Y_Sanofi,5_ - 8.432458449479176e7 Y_Sanofi,6_ + 1 Y_tilde_Sanofi,3_ = 0
c495: -8.432458449479176e7 Y_Sanofi,3_ - 8.432458449479176e7 Y_Sanofi,4_ - 8.432458449479176e7 Y_Sanofi,5_ - 8.432458449479176e7 Y_Sanofi,6_ - 8.432458449479176e7 Y_Sanofi,7_ + 1 Y_tilde_Sanofi,3_ = 0
c496: -8.432458449479176e7 Y_Sanofi,4_ + 1 Y_tilde_Sanofi,4_ = 0
c497: -8.432458449479176e7 Y_Sanofi,4_ - 8.432458449479176e7 Y_Sanofi,5_ + 1 Y_tilde_Sanofi,4_ = 0
c498: -8.432458449479176e7 Y_Sanofi,4_ - 8.432458449479176e7 Y_Sanofi,5_ - 8.432458449479176e7 Y_Sanofi,6_ + 1 Y_tilde_Sanofi,4_ = 0
c499: -8.432458449479176e7 Y_Sanofi,4_ - 8.432458449479176e7 Y_Sanofi,5_ - 8.432458449479176e7 Y_Sanofi,6_ - 8.432458449479176e7 Y_Sanofi,7_ + 1 Y_tilde_Sanofi,4_ = 0
c500: -8.432458449479176e7 Y_Sanofi,4_ - 8.432458449479176e7 Y_Sanofi,5_ - 8.432458449479176e7 Y_Sanofi,6_ - 8.432458449479176e7 Y_Sanofi,7_ - 8.432458449479176e7 Y_Sanofi,8_ + 1 Y_tilde_Sanofi,4_ = 0
c501: -8.432458449479176e7 Y_Sanofi,5_ + 1 Y_tilde_Sanofi,5_ = 0
c502: -8.432458449479176e7 Y_Sanofi,5_ - 8.432458449479176e7 Y_Sanofi,6_ + 1 Y_tilde_Sanofi,5_ = 0
c503: -8.432458449479176e7 Y_Sanofi,5_ - 8.432458449479176e7 Y_Sanofi,6_ - 8.432458449479176e7 Y_Sanofi,7_ + 1 Y_tilde_Sanofi,5_ = 0
c504: -8.432458449479176e7 Y_Sanofi,5_ - 8.432458449479176e7 Y_Sanofi,6_ - 8.432458449479176e7 Y_Sanofi,7_ - 8.432458449479176e7 Y_Sanofi,8_ + 1 Y_tilde_Sanofi,5_ = 0
c505: -8.432458449479176e7 Y_Sanofi,5_ - 8.432458449479176e7 Y_Sanofi,6_ - 8.432458449479176e7 Y_Sanofi,7_ - 8.432458449479176e7 Y_Sanofi,8_ - 8.432458449479176e7 Y_Sanofi,9_ + 1 Y_tilde_Sanofi,5_ = 0
c506: -8.432458449479176e7 Y_Sanofi,6_ + 1 Y_tilde_Sanofi,6_ = 0
c507: -8.432458449479176e7 Y_Sanofi,6_ - 8.432458449479176e7 Y_Sanofi,7_ + 1 Y_tilde_Sanofi,6_ = 0
c508: -8.432458449479176e7 Y_Sanofi,6_ - 8.432458449479176e7 Y_Sanofi,7_ - 8.432458449479176e7 Y_Sanofi,8_ + 1 Y_tilde_Sanofi,6_ = 0
c509: -8.432458449479176e7 Y_Sanofi,6_ - 8.432458449479176e7 Y_Sanofi,7_ - 8.432458449479176e7 Y_Sanofi,8_ - 8.432458449479176e7 Y_Sanofi,9_ + 1 Y_tilde_Sanofi,6_ = 0
c510: -8.432458449479176e7 Y_Sanofi,6_ - 8.432458449479176e7 Y_Sanofi,7_ - 8.432458449479176e7 Y_Sanofi,8_ - 8.432458449479176e7 Y_Sanofi,9_ - 8.432458449479176e7 Y_Sanofi,10_ + 1 Y_tilde_Sanofi,6_ = 0
c511: -8.432458449479176e7 Y_Sanofi,7_ + 1 Y_tilde_Sanofi,7_ = 0
c512: -8.432458449479176e7 Y_Sanofi,7_ - 8.432458449479176e7 Y_Sanofi,8_ + 1 Y_tilde_Sanofi,7_ = 0
c513: -8.432458449479176e7 Y_Sanofi,7_ - 8.432458449479176e7 Y_Sanofi,8_ - 8.432458449479176e7 Y_Sanofi,9_ + 1 Y_tilde_Sanofi,7_ = 0
c514: -8.432458449479176e7 Y_Sanofi,7_ - 8.432458449479176e7 Y_Sanofi,8_ - 8.432458449479176e7 Y_Sanofi,9_ - 8.432458449479176e7 Y_Sanofi,10_ + 1 Y_tilde_Sanofi,7_ = 0
c515: -8.432458449479176e7 Y_Sanofi,8_ + 1 Y_tilde_Sanofi,8_ = 0
c516: -8.432458449479176e7 Y_Sanofi,8_ - 8.432458449479176e7 Y_Sanofi,9_ + 1 Y_tilde_Sanofi,8_ = 0
c517: -8.432458449479176e7 Y_Sanofi,8_ - 8.432458449479176e7 Y_Sanofi,9_ - 8.432458449479176e7 Y_Sanofi,10_ + 1 Y_tilde_Sanofi,8_ = 0
c518: -8.432458449479176e7 Y_Sanofi,9_ + 1 Y_tilde_Sanofi,9_ = 0
c519: -8.432458449479176e7 Y_Sanofi,9_ - 8.432458449479176e7 Y_Sanofi,10_ + 1 Y_tilde_Sanofi,9_ = 0
c520: -8.432458449479176e7 Y_Sanofi,10_ + 1 Y_tilde_Sanofi,10_ = 0
c521: -2.156363103009315e8 Y_Serum_Institute,1_ + 1 Y_tilde_Serum_Institute,1_ = 0
c522: -2.156363103009315e8 Y_Serum_Institute,1_ - 2.156363103009315e8 Y_Serum_Institute,2_ + 1 Y_tilde_Serum_Institute,1_ = 0
c523: -2.156363103009315e8 Y_Serum_Institute,1_ - 2.156363103009315e8 Y_Serum_Institute,2_ - 2.156363103009315e8 Y_Serum_Institute,3_ + 1 Y_tilde_Serum_Institute,1_ = 0
c524: -2.156363103009315e8 Y_Serum_Institute,1_ - 2.156363103009315e8 Y_Serum_Institute,2_ - 2.156363103009315e8 Y_Serum_Institute,3_ - 2.156363103009315e8 Y_Serum_Institute,4_ + 1 Y_tilde_Serum_Institute,1_ = 0
c525: -2.156363103009315e8 Y_Serum_Institute,1_ - 2.156363103009315e8 Y_Serum_Institute,2_ - 2.156363103009315e8 Y_Serum_Institute,3_ - 2.156363103009315e8 Y_Serum_Institute,4_ - 2.156363103009315e8 Y_Serum_Institute,5_ + 1 Y_tilde_Serum_Institute,1_ = 0
c526: -2.156363103009315e8 Y_Serum_Institute,2_ + 1 Y_tilde_Serum_Institute,2_ = 0
c527: -2.156363103009315e8 Y_Serum_Institute,2_ - 2.156363103009315e8 Y_Serum_Institute,3_ + 1 Y_tilde_Serum_Institute,2_ = 0
c528: -2.156363103009315e8 Y_Serum_Institute,2_ - 2.156363103009315e8 Y_Serum_Institute,3_ - 2.156363103009315e8 Y_Serum_Institute,4_ + 1 Y_tilde_Serum_Institute,2_ = 0
c529: -2.156363103009315e8 Y_Serum_Institute,2_ - 2.156363103009315e8 Y_Serum_Institute,3_ - 2.156363103009315e8 Y_Serum_Institute,4_ - 2.156363103009315e8 Y_Serum_Institute,5_ + 1 Y_tilde_Serum_Institute,2_ = 0
c530: -2.156363103009315e8 Y_Serum_Institute,2_ - 2.156363103009315e8 Y_Serum_Institute,3_ - 2.156363103009315e8 Y_Serum_Institute,4_ - 2.156363103009315e8 Y_Serum_Institute,5_ - 2.156363103009315e8 Y_Serum_Institute,6_ + 1 Y_tilde_Serum_Institute,2_ = 0
c531: -2.156363103009315e8 Y_Serum_Institute,3_ + 1 Y_tilde_Serum_Institute,3_ = 0
c532: -2.156363103009315e8 Y_Serum_Institute,3_ - 2.156363103009315e8 Y_Serum_Institute,4_ + 1 Y_tilde_Serum_Institute,3_ = 0
c533: -2.156363103009315e8 Y_Serum_Institute,3_ - 2.156363103009315e8 Y_Serum_Institute,4_ - 2.156363103009315e8 Y_Serum_Institute,5_ + 1 Y_tilde_Serum_Institute,3_ = 0
c534: -2.156363103009315e8 Y_Serum_Institute,3_ - 2.156363103009315e8 Y_Serum_Institute,4_ - 2.156363103009315e8 Y_Serum_Institute,5_ - 2.156363103009315e8 Y_Serum_Institute,6_ + 1 Y_tilde_Serum_Institute,3_ = 0
c535: -2.156363103009315e8 Y_Serum_Institute,3_ - 2.156363103009315e8 Y_Serum_Institute,4_ - 2.156363103009315e8 Y_Serum_Institute,5_ - 2.156363103009315e8 Y_Serum_Institute,6_ - 2.156363103009315e8 Y_Serum_Institute,7_ + 1 Y_tilde_Serum_Institute,3_ = 0
c536: -2.156363103009315e8 Y_Serum_Institute,4_ + 1 Y_tilde_Serum_Institute,4_ = 0
c537: -2.156363103009315e8 Y_Serum_Institute,4_ - 2.156363103009315e8 Y_Serum_Institute,5_ + 1 Y_tilde_Serum_Institute,4_ = 0
c538: -2.156363103009315e8 Y_Serum_Institute,4_ - 2.156363103009315e8 Y_Serum_Institute,5_ - 2.156363103009315e8 Y_Serum_Institute,6_ + 1 Y_tilde_Serum_Institute,4_ = 0
c539: -2.156363103009315e8 Y_Serum_Institute,4_ - 2.156363103009315e8 Y_Serum_Institute,5_ - 2.156363103009315e8 Y_Serum_Institute,6_ - 2.156363103009315e8 Y_Serum_Institute,7_ + 1 Y_tilde_Serum_Institute,4_ = 0
c540: -2.156363103009315e8 Y_Serum_Institute,4_ - 2.156363103009315e8 Y_Serum_Institute,5_ - 2.156363103009315e8 Y_Serum_Institute,6_ - 2.156363103009315e8 Y_Serum_Institute,7_ - 2.156363103009315e8 Y_Serum_Institute,8_ + 1 Y_tilde_Serum_Institute,4_ = 0
c541: -2.156363103009315e8 Y_Serum_Institute,5_ + 1 Y_tilde_Serum_Institute,5_ = 0
c542: -2.156363103009315e8 Y_Serum_Institute,5_ - 2.156363103009315e8 Y_Serum_Institute,6_ + 1 Y_tilde_Serum_Institute,5_ = 0
c543: -2.156363103009315e8 Y_Serum_Institute,5_ - 2.156363103009315e8 Y_Serum_Institute,6_ - 2.156363103009315e8 Y_Serum_Institute,7_ + 1 Y_tilde_Serum_Institute,5_ = 0
c544: -2.156363103009315e8 Y_Serum_Institute,5_ - 2.156363103009315e8 Y_Serum_Institute,6_ - 2.156363103009315e8 Y_Serum_Institute,7_ - 2.156363103009315e8 Y_Serum_Institute,8_ + 1 Y_tilde_Serum_Institute,5_ = 0
c545: -2.156363103009315e8 Y_Serum_Institute,5_ - 2.156363103009315e8 Y_Serum_Institute,6_ - 2.156363103009315e8 Y_Serum_Institute,7_ - 2.156363103009315e8 Y_Serum_Institute,8_ - 2.156363103009315e8 Y_Serum_Institute,9_ + 1 Y_tilde_Serum_Institute,5_ = 0
c546: -2.156363103009315e8 Y_Serum_Institute,6_ + 1 Y_tilde_Serum_Institute,6_ = 0
c547: -2.156363103009315e8 Y_Serum_Institute,6_ - 2.156363103009315e8 Y_Serum_Institute,7_ + 1 Y_tilde_Serum_Institute,6_ = 0
c548: -2.156363103009315e8 Y_Serum_Institute,6_ - 2.156363103009315e8 Y_Serum_Institute,7_ - 2.156363103009315e8 Y_Serum_Institute,8_ + 1 Y_tilde_Serum_Institute,6_ = 0
c549: -2.156363103009315e8 Y_Serum_Institute,6_ - 2.156363103009315e8 Y_Serum_Institute,7_ - 2.156363103009315e8 Y_Serum_Institute,8_ - 2.156363103009315e8 Y_Serum_Institute,9_ + 1 Y_tilde_Serum_Institute,6_ = 0
c550: -2.156363103009315e8 Y_Serum_Institute,6_ - 2.156363103009315e8 Y_Serum_Institute,7_ - 2.156363103009315e8 Y_Serum_Institute,8_ - 2.156363103009315e8 Y_Serum_Institute,9_ - 2.156363103009315e8 Y_Serum_Institute,10_ + 1 Y_tilde_Serum_Institute,6_ = 0
c551: -2.156363103009315e8 Y_Serum_Institute,7_ + 1 Y_tilde_Serum_Institute,7_ = 0
c552: -2.156363103009315e8 Y_Serum_Institute,7_ - 2.156363103009315e8 Y_Serum_Institute,8_ + 1 Y_tilde_Serum_Institute,7_ = 0
c553: -2.156363103009315e8 Y_Serum_Institute,7_ - 2.156363103009315e8 Y_Serum_Institute,8_ - 2.156363103009315e8 Y_Serum_Institute,9_ + 1 Y_tilde_Serum_Institute,7_ = 0
c554: -2.156363103009315e8 Y_Serum_Institute,7_ - 2.156363103009315e8 Y_Serum_Institute,8_ - 2.156363103009315e8 Y_Serum_Institute,9_ - 2.156363103009315e8 Y_Serum_Institute,10_ + 1 Y_tilde_Serum_Institute,7_ = 0
c555: -2.156363103009315e8 Y_Serum_Institute,8_ + 1 Y_tilde_Serum_Institute,8_ = 0
c556: -2.156363103009315e8 Y_Serum_Institute,8_ - 2.156363103009315e8 Y_Serum_Institute,9_ + 1 Y_tilde_Serum_Institute,8_ = 0
c557: -2.156363103009315e8 Y_Serum_Institute,8_ - 2.156363103009315e8 Y_Serum_Institute,9_ - 2.156363103009315e8 Y_Serum_Institute,10_ + 1 Y_tilde_Serum_Institute,8_ = 0
c558: -2.156363103009315e8 Y_Serum_Institute,9_ + 1 Y_tilde_Serum_Institute,9_ = 0
c559: -2.156363103009315e8 Y_Serum_Institute,9_ - 2.156363103009315e8 Y_Serum_Institute,10_ + 1 Y_tilde_Serum_Institute,9_ = 0
c560: -2.156363103009315e8 Y_Serum_Institute,10_ + 1 Y_tilde_Serum_Institute,10_ = 0
c561: -7.323806423828126e7 Y_Pfizer,1_ + 1 Y_tilde_Pfizer,1_ = 0
c562: -7.323806423828126e7 Y_Pfizer,1_ - 7.323806423828126e7 Y_Pfizer,2_ + 1 Y_tilde_Pfizer,1_ = 0
c563: -7.323806423828126e7 Y_Pfizer,1_ - 7.323806423828126e7 Y_Pfizer,2_ - 7.323806423828126e7 Y_Pfizer,3_ + 1 Y_tilde_Pfizer,1_ = 0
c564: -7.323806423828126e7 Y_Pfizer,1_ - 7.323806423828126e7 Y_Pfizer,2_ - 7.323806423828126e7 Y_Pfizer,3_ - 7.323806423828126e7 Y_Pfizer,4_ + 1 Y_tilde_Pfizer,1_ = 0
c565: -7.323806423828126e7 Y_Pfizer,1_ - 7.323806423828126e7 Y_Pfizer,2_ - 7.323806423828126e7 Y_Pfizer,3_ - 7.323806423828126e7 Y_Pfizer,4_ - 7.323806423828126e7 Y_Pfizer,5_ + 1 Y_tilde_Pfizer,1_ = 0
c566: -7.323806423828126e7 Y_Pfizer,2_ + 1 Y_tilde_Pfizer,2_ = 0
c567: -7.323806423828126e7 Y_Pfizer,2_ - 7.323806423828126e7 Y_Pfizer,3_ + 1 Y_tilde_Pfizer,2_ = 0
c568: -7.323806423828126e7 Y_Pfizer,2_ - 7.323806423828126e7 Y_Pfizer,3_ - 7.323806423828126e7 Y_Pfizer,4_ + 1 Y_tilde_Pfizer,2_ = 0
c569: -7.323806423828126e7 Y_Pfizer,2_ - 7.323806423828126e7 Y_Pfizer,3_ - 7.323806423828126e7 Y_Pfizer,4_ - 7.323806423828126e7 Y_Pfizer,5_ + 1 Y_tilde_Pfizer,2_ = 0
c570: -7.323806423828126e7 Y_Pfizer,2_ - 7.323806423828126e7 Y_Pfizer,3_ - 7.323806423828126e7 Y_Pfizer,4_ - 7.323806423828126e7 Y_Pfizer,5_ - 7.323806423828126e7 Y_Pfizer,6_ + 1 Y_tilde_Pfizer,2_ = 0
c571: -7.323806423828126e7 Y_Pfizer,3_ + 1 Y_tilde_Pfizer,3_ = 0
c572: -7.323806423828126e7 Y_Pfizer,3_ - 7.323806423828126e7 Y_Pfizer,4_ + 1 Y_tilde_Pfizer,3_ = 0
c573: -7.323806423828126e7 Y_Pfizer,3_ - 7.323806423828126e7 Y_Pfizer,4_ - 7.323806423828126e7 Y_Pfizer,5_ + 1 Y_tilde_Pfizer,3_ = 0
c574: -7.323806423828126e7 Y_Pfizer,3_ - 7.323806423828126e7 Y_Pfizer,4_ - 7.323806423828126e7 Y_Pfizer,5_ - 7.323806423828126e7 Y_Pfizer,6_ + 1 Y_tilde_Pfizer,3_ = 0
c575: -7.323806423828126e7 Y_Pfizer,3_ - 7.323806423828126e7 Y_Pfizer,4_ - 7.323806423828126e7 Y_Pfizer,5_ - 7.323806423828126e7 Y_Pfizer,6_ - 7.323806423828126e7 Y_Pfizer,7_ + 1 Y_tilde_Pfizer,3_ = 0
c576: -7.323806423828126e7 Y_Pfizer,4_ + 1 Y_tilde_Pfizer,4_ = 0
c577: -7.323806423828126e7 Y_Pfizer,4_ - 7.323806423828126e7 Y_Pfizer,5_ + 1 Y_tilde_Pfizer,4_ = 0
c578: -7.323806423828126e7 Y_Pfizer,4_ - 7.323806423828126e7 Y_Pfizer,5_ - 7.323806423828126e7 Y_Pfizer,6_ + 1 Y_tilde_Pfizer,4_ = 0
c579: -7.323806423828126e7 Y_Pfizer,4_ - 7.323806423828126e7 Y_Pfizer,5_ - 7.323806423828126e7 Y_Pfizer,6_ - 7.323806423828126e7 Y_Pfizer,7_ + 1 Y_tilde_Pfizer,4_ = 0
c580: -7.323806423828126e7 Y_Pfizer,4_ - 7.323806423828126e7 Y_Pfizer,5_ - 7.323806423828126e7 Y_Pfizer,6_ - 7.323806423828126e7 Y_Pfizer,7_ - 7.323806423828126e7 Y_Pfizer,8_ + 1 Y_tilde_Pfizer,4_ = 0
c581: -7.323806423828126e7 Y_Pfizer,5_ + 1 Y_tilde_Pfizer,5_ = 0
c582: -7.323806423828126e7 Y_Pfizer,5_ - 7.323806423828126e7 Y_Pfizer,6_ + 1 Y_tilde_Pfizer,5_ = 0
c583: -7.323806423828126e7 Y_Pfizer,5_ - 7.323806423828126e7 Y_Pfizer,6_ - 7.323806423828126e7 Y_Pfizer,7_ + 1 Y_tilde_Pfizer,5_ = 0
c584: -7.323806423828126e7 Y_Pfizer,5_ - 7.323806423828126e7 Y_Pfizer,6_ - 7.323806423828126e7 Y_Pfizer,7_ - 7.323806423828126e7 Y_Pfizer,8_ + 1 Y_tilde_Pfizer,5_ = 0
c585: -7.323806423828126e7 Y_Pfizer,5_ - 7.323806423828126e7 Y_Pfizer,6_ - 7.323806423828126e7 Y_Pfizer,7_ - 7.323806423828126e7 Y_Pfizer,8_ - 7.323806423828126e7 Y_Pfizer,9_ + 1 Y_tilde_Pfizer,5_ = 0
c586: -7.323806423828126e7 Y_Pfizer,6_ + 1 Y_tilde_Pfizer,6_ = 0
c587: -7.323806423828126e7 Y_Pfizer,6_ - 7.323806423828126e7 Y_Pfizer,7_ + 1 Y_tilde_Pfizer,6_ = 0
c588: -7.323806423828126e7 Y_Pfizer,6_ - 7.323806423828126e7 Y_Pfizer,7_ - 7.323806423828126e7 Y_Pfizer,8_ + 1 Y_tilde_Pfizer,6_ = 0
c589: -7.323806423828126e7 Y_Pfizer,6_ - 7.323806423828126e7 Y_Pfizer,7_ - 7.323806423828126e7 Y_Pfizer,8_ - 7.323806423828126e7 Y_Pfizer,9_ + 1 Y_tilde_Pfizer,6_ = 0
c590: -7.323806423828126e7 Y_Pfizer,6_ - 7.323806423828126e7 Y_Pfizer,7_ - 7.323806423828126e7 Y_Pfizer,8_ - 7.323806423828126e7 Y_Pfizer,9_ - 7.323806423828126e7 Y_Pfizer,10_ + 1 Y_tilde_Pfizer,6_ = 0
c591: -7.323806423828126e7 Y_Pfizer,7_ + 1 Y_tilde_Pfizer,7_ = 0
c592: -7.323806423828126e7 Y_Pfizer,7_ - 7.323806423828126e7 Y_Pfizer,8_ + 1 Y_tilde_Pfizer,7_ = 0
c593: -7.323806423828126e7 Y_Pfizer,7_ - 7.323806423828126e7 Y_Pfizer,8_ - 7.323806423828126e7 Y_Pfizer,9_ + 1 Y_tilde_Pfizer,7_ = 0
c594: -7.323806423828126e7 Y_Pfizer,7_ - 7.323806423828126e7 Y_Pfizer,8_ - 7.323806423828126e7 Y_Pfizer,9_ - 7.323806423828126e7 Y_Pfizer,10_ + 1 Y_tilde_Pfizer,7_ = 0
c595: -7.323806423828126e7 Y_Pfizer,8_ + 1 Y_tilde_Pfizer,8_ = 0
c596: -7.323806423828126e7 Y_Pfizer,8_ - 7.323806423828126e7 Y_Pfizer,9_ + 1 Y_tilde_Pfizer,8_ = 0
c597: -7.323806423828126e7 Y_Pfizer,8_ - 7.323806423828126e7 Y_Pfizer,9_ - 7.323806423828126e7 Y_Pfizer,10_ + 1 Y_tilde_Pfizer,8_ = 0
c598: -7.323806423828126e7 Y_Pfizer,9_ + 1 Y_tilde_Pfizer,9_ = 0
c599: -7.323806423828126e7 Y_Pfizer,9_ - 7.323806423828126e7 Y_Pfizer,10_ + 1 Y_tilde_Pfizer,9_ = 0
c600: -7.323806423828126e7 Y_Pfizer,10_ + 1 Y_tilde_Pfizer,10_ = 0
Bounds
Q_M,Serum_Institute,(1,_1),1_ >= 0
Q_M,Serum_Institute,(1,_1),2_ >= 0
Q_M,Serum_Institute,(1,_1),3_ >= 0
Q_M,Serum_Institute,(1,_2),1_ >= 0
Q_M,Serum_Institute,(1,_2),2_ >= 0
Q_M,Serum_Institute,(1,_2),3_ >= 0
Q_M,Serum_Institute,(1,_3),1_ >= 0
Q_M,Serum_Institute,(1,_3),2_ >= 0
Q_M,Serum_Institute,(1,_3),3_ >= 0
Q_M,Serum_Institute,(1,_4),1_ >= 0
Q_M,Serum_Institute,(1,_4),2_ >= 0
Q_M,Serum_Institute,(1,_4),3_ >= 0
Q_M,Serum_Institute,(1,_5),1_ >= 0
Q_M,Serum_Institute,(1,_5),2_ >= 0
Q_M,Serum_Institute,(1,_5),3_ >= 0
Q_M,Serum_Institute,(2,_2),1_ >= 0
Q_M,Serum_Institute,(2,_2),2_ >= 0
Q_M,Serum_Institute,(2,_2),3_ >= 0
Q_M,Serum_Institute,(2,_3),1_ >= 0
Q_M,Serum_Institute,(2,_3),2_ >= 0
Q_M,Serum_Institute,(2,_3),3_ >= 0
Q_M,Serum_Institute,(2,_4),1_ >= 0
Q_M,Serum_Institute,(2,_4),2_ >= 0
Q_M,Serum_Institute,(2,_4),3_ >= 0
Q_M,Serum_Institute,(2,_5),1_ >= 0
Q_M,Serum_Institute,(2,_5),2_ >= 0
Q_M,Serum_Institute,(2,_5),3_ >= 0
Q_M,Serum_Institute,(2,_6),1_ >= 0
Q_M,Serum_Institute,(2,_6),2_ >= 0
Q_M,Serum_Institute,(2,_6),3_ >= 0
Q_M,Serum_Institute,(3,_3),1_ >= 0
Q_M,Serum_Institute,(3,_3),2_ >= 0
Q_M,Serum_Institute,(3,_3),3_ >= 0
Q_M,Serum_Institute,(3,_4),1_ >= 0
Q_M,Serum_Institute,(3,_4),2_ >= 0
Q_M,Serum_Institute,(3,_4),3_ >= 0
Q_M,Serum_Institute,(3,_5),1_ >= 0
Q_M,Serum_Institute,(3,_5),2_ >= 0
Q_M,Serum_Institute,(3,_5),3_ >= 0
Q_M,Serum_Institute,(3,_6),1_ >= 0
Q_M,Serum_Institute,(3,_6),2_ >= 0
Q_M,Serum_Institute,(3,_6),3_ >= 0
Q_M,Serum_Institute,(3,_7),1_ >= 0
Q_M,Serum_Institute,(3,_7),2_ >= 0
Q_M,Serum_Institute,(3,_7),3_ >= 0
Q_M,Serum_Institute,(4,_4),1_ >= 0
Q_M,Serum_Institute,(4,_4),2_ >= 0
Q_M,Serum_Institute,(4,_4),3_ >= 0
Q_M,Serum_Institute,(4,_5),1_ >= 0
Q_M,Serum_Institute,(4,_5),2_ >= 0
Q_M,Serum_Institute,(4,_5),3_ >= 0
Q_M,Serum_Institute,(4,_6),1_ >= 0
Q_M,Serum_Institute,(4,_6),2_ >= 0
Q_M,Serum_Institute,(4,_6),3_ >= 0
Q_M,Serum_Institute,(4,_7),1_ >= 0
Q_M,Serum_Institute,(4,_7),2_ >= 0
Q_M,Serum_Institute,(4,_7),3_ >= 0
Q_M,Serum_Institute,(4,_8),1_ >= 0
Q_M,Serum_Institute,(4,_8),2_ >= 0
Q_M,Serum_Institute,(4,_8),3_ >= 0
Q_M,Serum_Institute,(5,_5),1_ >= 0
Q_M,Serum_Institute,(5,_5),2_ >= 0
Q_M,Serum_Institute,(5,_5),3_ >= 0
Q_M,Serum_Institute,(5,_6),1_ >= 0
Q_M,Serum_Institute,(5,_6),2_ >= 0
Q_M,Serum_Institute,(5,_6),3_ >= 0
Q_M,Serum_Institute,(5,_7),1_ >= 0
Q_M,Serum_Institute,(5,_7),2_ >= 0
Q_M,Serum_Institute,(5,_7),3_ >= 0
Q_M,Serum_Institute,(5,_8),1_ >= 0
Q_M,Serum_Institute,(5,_8),2_ >= 0
Q_M,Serum_Institute,(5,_8),3_ >= 0
Q_M,Serum_Institute,(5,_9),1_ >= 0
Q_M,Serum_Institute,(5,_9),2_ >= 0
Q_M,Serum_Institute,(5,_9),3_ >= 0
Q_M,Serum_Institute,(6,_6),1_ >= 0
Q_M,Serum_Institute,(6,_6),2_ >= 0
Q_M,Serum_Institute,(6,_6),3_ >= 0
Q_M,Serum_Institute,(6,_7),1_ >= 0
Q_M,Serum_Institute,(6,_7),2_ >= 0
Q_M,Serum_Institute,(6,_7),3_ >= 0
Q_M,Serum_Institute,(6,_8),1_ >= 0
Q_M,Serum_Institute,(6,_8),2_ >= 0
Q_M,Serum_Institute,(6,_8),3_ >= 0
Q_M,Serum_Institute,(6,_9),1_ >= 0
Q_M,Serum_Institute,(6,_9),2_ >= 0
Q_M,Serum_Institute,(6,_9),3_ >= 0
Q_M,Serum_Institute,(6,_10),1_ >= 0
Q_M,Serum_Institute,(6,_10),2_ >= 0
Q_M,Serum_Institute,(6,_10),3_ >= 0
Q_M,Serum_Institute,(7,_7),1_ >= 0
Q_M,Serum_Institute,(7,_7),2_ >= 0
Q_M,Serum_Institute,(7,_7),3_ >= 0
Q_M,Serum_Institute,(7,_8),1_ >= 0
Q_M,Serum_Institute,(7,_8),2_ >= 0
Q_M,Serum_Institute,(7,_8),3_ >= 0
Q_M,Serum_Institute,(7,_9),1_ >= 0
Q_M,Serum_Institute,(7,_9),2_ >= 0
Q_M,Serum_Institute,(7,_9),3_ >= 0
Q_M,Serum_Institute,(7,_10),1_ >= 0
Q_M,Serum_Institute,(7,_10),2_ >= 0
Q_M,Serum_Institute,(7,_10),3_ >= 0
Q_M,Serum_Institute,(8,_8),1_ >= 0
Q_M,Serum_Institute,(8,_8),2_ >= 0
Q_M,Serum_Institute,(8,_8),3_ >= 0
Q_M,Serum_Institute,(8,_9),1_ >= 0
Q_M,Serum_Institute,(8,_9),2_ >= 0
Q_M,Serum_Institute,(8,_9),3_ >= 0
Q_M,Serum_Institute,(8,_10),1_ >= 0
Q_M,Serum_Institute,(8,_10),2_ >= 0
Q_M,Serum_Institute,(8,_10),3_ >= 0
Q_M,Serum_Institute,(9,_9),1_ >= 0
Q_M,Serum_Institute,(9,_9),2_ >= 0
Q_M,Serum_Institute,(9,_9),3_ >= 0
Q_M,Serum_Institute,(9,_10),1_ >= 0
Q_M,Serum_Institute,(9,_10),2_ >= 0
Q_M,Serum_Institute,(9,_10),3_ >= 0
Q_M,Serum_Institute,(10,_10),1_ >= 0
Q_M,Serum_Institute,(10,_10),2_ >= 0
Q_M,Serum_Institute,(10,_10),3_ >= 0
Q_M,PT_Bio,(1,_1),1_ >= 0
Q_M,PT_Bio,(1,_1),2_ >= 0
Q_M,PT_Bio,(1,_1),3_ >= 0
Q_M,PT_Bio,(1,_2),1_ >= 0
Q_M,PT_Bio,(1,_2),2_ >= 0
Q_M,PT_Bio,(1,_2),3_ >= 0
Q_M,PT_Bio,(1,_3),1_ >= 0
Q_M,PT_Bio,(1,_3),2_ >= 0
Q_M,PT_Bio,(1,_3),3_ >= 0
Q_M,PT_Bio,(1,_4),1_ >= 0
Q_M,PT_Bio,(1,_4),2_ >= 0
Q_M,PT_Bio,(1,_4),3_ >= 0
Q_M,PT_Bio,(1,_5),1_ >= 0
Q_M,PT_Bio,(1,_5),2_ >= 0
Q_M,PT_Bio,(1,_5),3_ >= 0
Q_M,PT_Bio,(2,_2),1_ >= 0
Q_M,PT_Bio,(2,_2),2_ >= 0
Q_M,PT_Bio,(2,_2),3_ >= 0
Q_M,PT_Bio,(2,_3),1_ >= 0
Q_M,PT_Bio,(2,_3),2_ >= 0
Q_M,PT_Bio,(2,_3),3_ >= 0
Q_M,PT_Bio,(2,_4),1_ >= 0
Q_M,PT_Bio,(2,_4),2_ >= 0
Q_M,PT_Bio,(2,_4),3_ >= 0
Q_M,PT_Bio,(2,_5),1_ >= 0
Q_M,PT_Bio,(2,_5),2_ >= 0
Q_M,PT_Bio,(2,_5),3_ >= 0
Q_M,PT_Bio,(2,_6),1_ >= 0
Q_M,PT_Bio,(2,_6),2_ >= 0
Q_M,PT_Bio,(2,_6),3_ >= 0
Q_M,PT_Bio,(3,_3),1_ >= 0
Q_M,PT_Bio,(3,_3),2_ >= 0
Q_M,PT_Bio,(3,_3),3_ >= 0
Q_M,PT_Bio,(3,_4),1_ >= 0
Q_M,PT_Bio,(3,_4),2_ >= 0
Q_M,PT_Bio,(3,_4),3_ >= 0
Q_M,PT_Bio,(3,_5),1_ >= 0
Q_M,PT_Bio,(3,_5),2_ >= 0
Q_M,PT_Bio,(3,_5),3_ >= 0
Q_M,PT_Bio,(3,_6),1_ >= 0
Q_M,PT_Bio,(3,_6),2_ >= 0
Q_M,PT_Bio,(3,_6),3_ >= 0
Q_M,PT_Bio,(3,_7),1_ >= 0
Q_M,PT_Bio,(3,_7),2_ >= 0
Q_M,PT_Bio,(3,_7),3_ >= 0
Q_M,PT_Bio,(4,_4),1_ >= 0
Q_M,PT_Bio,(4,_4),2_ >= 0
Q_M,PT_Bio,(4,_4),3_ >= 0
Q_M,PT_Bio,(4,_5),1_ >= 0
Q_M,PT_Bio,(4,_5),2_ >= 0
Q_M,PT_Bio,(4,_5),3_ >= 0
Q_M,PT_Bio,(4,_6),1_ >= 0
Q_M,PT_Bio,(4,_6),2_ >= 0
Q_M,PT_Bio,(4,_6),3_ >= 0
Q_M,PT_Bio,(4,_7),1_ >= 0
Q_M,PT_Bio,(4,_7),2_ >= 0
Q_M,PT_Bio,(4,_7),3_ >= 0
Q_M,PT_Bio,(4,_8),1_ >= 0
Q_M,PT_Bio,(4,_8),2_ >= 0
Q_M,PT_Bio,(4,_8),3_ >= 0
Q_M,PT_Bio,(5,_5),1_ >= 0
Q_M,PT_Bio,(5,_5),2_ >= 0
Q_M,PT_Bio,(5,_5),3_ >= 0
Q_M,PT_Bio,(5,_6),1_ >= 0
Q_M,PT_Bio,(5,_6),2_ >= 0
Q_M,PT_Bio,(5,_6),3_ >= 0
Q_M,PT_Bio,(5,_7),1_ >= 0
Q_M,PT_Bio,(5,_7),2_ >= 0
Q_M,PT_Bio,(5,_7),3_ >= 0
Q_M,PT_Bio,(5,_8),1_ >= 0
Q_M,PT_Bio,(5,_8),2_ >= 0
Q_M,PT_Bio,(5,_8),3_ >= 0
Q_M,PT_Bio,(5,_9),1_ >= 0
Q_M,PT_Bio,(5,_9),2_ >= 0
Q_M,PT_Bio,(5,_9),3_ >= 0
Q_M,PT_Bio,(6,_6),1_ >= 0
Q_M,PT_Bio,(6,_6),2_ >= 0
Q_M,PT_Bio,(6,_6),3_ >= 0
Q_M,PT_Bio,(6,_7),1_ >= 0
Q_M,PT_Bio,(6,_7),2_ >= 0
Q_M,PT_Bio,(6,_7),3_ >= 0
Q_M,PT_Bio,(6,_8),1_ >= 0
Q_M,PT_Bio,(6,_8),2_ >= 0
Q_M,PT_Bio,(6,_8),3_ >= 0
Q_M,PT_Bio,(6,_9),1_ >= 0
Q_M,PT_Bio,(6,_9),2_ >= 0
Q_M,PT_Bio,(6,_9),3_ >= 0
Q_M,PT_Bio,(6,_10),1_ >= 0
Q_M,PT_Bio,(6,_10),2_ >= 0
Q_M,PT_Bio,(6,_10),3_ >= 0
Q_M,PT_Bio,(7,_7),1_ >= 0
Q_M,PT_Bio,(7,_7),2_ >= 0
Q_M,PT_Bio,(7,_7),3_ >= 0
Q_M,PT_Bio,(7,_8),1_ >= 0
Q_M,PT_Bio,(7,_8),2_ >= 0
Q_M,PT_Bio,(7,_8),3_ >= 0
Q_M,PT_Bio,(7,_9),1_ >= 0
Q_M,PT_Bio,(7,_9),2_ >= 0
Q_M,PT_Bio,(7,_9),3_ >= 0
Q_M,PT_Bio,(7,_10),1_ >= 0
Q_M,PT_Bio,(7,_10),2_ >= 0
Q_M,PT_Bio,(7,_10),3_ >= 0
Q_M,PT_Bio,(8,_8),1_ >= 0
Q_M,PT_Bio,(8,_8),2_ >= 0
Q_M,PT_Bio,(8,_8),3_ >= 0
Q_M,PT_Bio,(8,_9),1_ >= 0
Q_M,PT_Bio,(8,_9),2_ >= 0
Q_M,PT_Bio,(8,_9),3_ >= 0
Q_M,PT_Bio,(8,_10),1_ >= 0
Q_M,PT_Bio,(8,_10),2_ >= 0
Q_M,PT_Bio,(8,_10),3_ >= 0
Q_M,PT_Bio,(9,_9),1_ >= 0
Q_M,PT_Bio,(9,_9),2_ >= 0
Q_M,PT_Bio,(9,_9),3_ >= 0
Q_M,PT_Bio,(9,_10),1_ >= 0
Q_M,PT_Bio,(9,_10),2_ >= 0
Q_M,PT_Bio,(9,_10),3_ >= 0
Q_M,PT_Bio,(10,_10),1_ >= 0
Q_M,PT_Bio,(10,_10),2_ >= 0
Q_M,PT_Bio,(10,_10),3_ >= 0
Q_MR,Serum_Institute,(1,_1),1_ >= 0
Q_MR,Serum_Institute,(1,_1),2_ >= 0
Q_MR,Serum_Institute,(1,_1),3_ >= 0
Q_MR,Serum_Institute,(1,_2),1_ >= 0
Q_MR,Serum_Institute,(1,_2),2_ >= 0
Q_MR,Serum_Institute,(1,_2),3_ >= 0
Q_MR,Serum_Institute,(1,_3),1_ >= 0
Q_MR,Serum_Institute,(1,_3),2_ >= 0
Q_MR,Serum_Institute,(1,_3),3_ >= 0
Q_MR,Serum_Institute,(1,_4),1_ >= 0
Q_MR,Serum_Institute,(1,_4),2_ >= 0
Q_MR,Serum_Institute,(1,_4),3_ >= 0
Q_MR,Serum_Institute,(1,_5),1_ >= 0
Q_MR,Serum_Institute,(1,_5),2_ >= 0
Q_MR,Serum_Institute,(1,_5),3_ >= 0
Q_MR,Serum_Institute,(2,_2),1_ >= 0
Q_MR,Serum_Institute,(2,_2),2_ >= 0
Q_MR,Serum_Institute,(2,_2),3_ >= 0
Q_MR,Serum_Institute,(2,_3),1_ >= 0
Q_MR,Serum_Institute,(2,_3),2_ >= 0
Q_MR,Serum_Institute,(2,_3),3_ >= 0
Q_MR,Serum_Institute,(2,_4),1_ >= 0
Q_MR,Serum_Institute,(2,_4),2_ >= 0
Q_MR,Serum_Institute,(2,_4),3_ >= 0
Q_MR,Serum_Institute,(2,_5),1_ >= 0
Q_MR,Serum_Institute,(2,_5),2_ >= 0
Q_MR,Serum_Institute,(2,_5),3_ >= 0
Q_MR,Serum_Institute,(2,_6),1_ >= 0
Q_MR,Serum_Institute,(2,_6),2_ >= 0
Q_MR,Serum_Institute,(2,_6),3_ >= 0
Q_MR,Serum_Institute,(3,_3),1_ >= 0
Q_MR,Serum_Institute,(3,_3),2_ >= 0
Q_MR,Serum_Institute,(3,_3),3_ >= 0
Q_MR,Serum_Institute,(3,_4),1_ >= 0
Q_MR,Serum_Institute,(3,_4),2_ >= 0
Q_MR,Serum_Institute,(3,_4),3_ >= 0
Q_MR,Serum_Institute,(3,_5),1_ >= 0
Q_MR,Serum_Institute,(3,_5),2_ >= 0
Q_MR,Serum_Institute,(3,_5),3_ >= 0
Q_MR,Serum_Institute,(3,_6),1_ >= 0
Q_MR,Serum_Institute,(3,_6),2_ >= 0
Q_MR,Serum_Institute,(3,_6),3_ >= 0
Q_MR,Serum_Institute,(3,_7),1_ >= 0
Q_MR,Serum_Institute,(3,_7),2_ >= 0
Q_MR,Serum_Institute,(3,_7),3_ >= 0
Q_MR,Serum_Institute,(4,_4),1_ >= 0
Q_MR,Serum_Institute,(4,_4),2_ >= 0
Q_MR,Serum_Institute,(4,_4),3_ >= 0
Q_MR,Serum_Institute,(4,_5),1_ >= 0
Q_MR,Serum_Institute,(4,_5),2_ >= 0
Q_MR,Serum_Institute,(4,_5),3_ >= 0
Q_MR,Serum_Institute,(4,_6),1_ >= 0
Q_MR,Serum_Institute,(4,_6),2_ >= 0
Q_MR,Serum_Institute,(4,_6),3_ >= 0
Q_MR,Serum_Institute,(4,_7),1_ >= 0
Q_MR,Serum_Institute,(4,_7),2_ >= 0
Q_MR,Serum_Institute,(4,_7),3_ >= 0
Q_MR,Serum_Institute,(4,_8),1_ >= 0
Q_MR,Serum_Institute,(4,_8),2_ >= 0
Q_MR,Serum_Institute,(4,_8),3_ >= 0
Q_MR,Serum_Institute,(5,_5),1_ >= 0
Q_MR,Serum_Institute,(5,_5),2_ >= 0
Q_MR,Serum_Institute,(5,_5),3_ >= 0
Q_MR,Serum_Institute,(5,_6),1_ >= 0
Q_MR,Serum_Institute,(5,_6),2_ >= 0
Q_MR,Serum_Institute,(5,_6),3_ >= 0
Q_MR,Serum_Institute,(5,_7),1_ >= 0
Q_MR,Serum_Institute,(5,_7),2_ >= 0
Q_MR,Serum_Institute,(5,_7),3_ >= 0
Q_MR,Serum_Institute,(5,_8),1_ >= 0
Q_MR,Serum_Institute,(5,_8),2_ >= 0
Q_MR,Serum_Institute,(5,_8),3_ >= 0
Q_MR,Serum_Institute,(5,_9),1_ >= 0
Q_MR,Serum_Institute,(5,_9),2_ >= 0
Q_MR,Serum_Institute,(5,_9),3_ >= 0
Q_MR,Serum_Institute,(6,_6),1_ >= 0
Q_MR,Serum_Institute,(6,_6),2_ >= 0
Q_MR,Serum_Institute,(6,_6),3_ >= 0
Q_MR,Serum_Institute,(6,_7),1_ >= 0
Q_MR,Serum_Institute,(6,_7),2_ >= 0
Q_MR,Serum_Institute,(6,_7),3_ >= 0
Q_MR,Serum_Institute,(6,_8),1_ >= 0
Q_MR,Serum_Institute,(6,_8),2_ >= 0
Q_MR,Serum_Institute,(6,_8),3_ >= 0
Q_MR,Serum_Institute,(6,_9),1_ >= 0
Q_MR,Serum_Institute,(6,_9),2_ >= 0
Q_MR,Serum_Institute,(6,_9),3_ >= 0
Q_MR,Serum_Institute,(6,_10),1_ >= 0
Q_MR,Serum_Institute,(6,_10),2_ >= 0
Q_MR,Serum_Institute,(6,_10),3_ >= 0
Q_MR,Serum_Institute,(7,_7),1_ >= 0
Q_MR,Serum_Institute,(7,_7),2_ >= 0
Q_MR,Serum_Institute,(7,_7),3_ >= 0
Q_MR,Serum_Institute,(7,_8),1_ >= 0
Q_MR,Serum_Institute,(7,_8),2_ >= 0
Q_MR,Serum_Institute,(7,_8),3_ >= 0
Q_MR,Serum_Institute,(7,_9),1_ >= 0
Q_MR,Serum_Institute,(7,_9),2_ >= 0
Q_MR,Serum_Institute,(7,_9),3_ >= 0
Q_MR,Serum_Institute,(7,_10),1_ >= 0
Q_MR,Serum_Institute,(7,_10),2_ >= 0
Q_MR,Serum_Institute,(7,_10),3_ >= 0
Q_MR,Serum_Institute,(8,_8),1_ >= 0
Q_MR,Serum_Institute,(8,_8),2_ >= 0
Q_MR,Serum_Institute,(8,_8),3_ >= 0
Q_MR,Serum_Institute,(8,_9),1_ >= 0
Q_MR,Serum_Institute,(8,_9),2_ >= 0
Q_MR,Serum_Institute,(8,_9),3_ >= 0
Q_MR,Serum_Institute,(8,_10),1_ >= 0
Q_MR,Serum_Institute,(8,_10),2_ >= 0
Q_MR,Serum_Institute,(8,_10),3_ >= 0
Q_MR,Serum_Institute,(9,_9),1_ >= 0
Q_MR,Serum_Institute,(9,_9),2_ >= 0
Q_MR,Serum_Institute,(9,_9),3_ >= 0
Q_MR,Serum_Institute,(9,_10),1_ >= 0
Q_MR,Serum_Institute,(9,_10),2_ >= 0
Q_MR,Serum_Institute,(9,_10),3_ >= 0
Q_MR,Serum_Institute,(10,_10),1_ >= 0
Q_MR,Serum_Institute,(10,_10),2_ >= 0
Q_MR,Serum_Institute,(10,_10),3_ >= 0
Q_MR,Biological_E,(1,_1),1_ >= 0
Q_MR,Biological_E,(1,_1),2_ >= 0
Q_MR,Biological_E,(1,_1),3_ >= 0
Q_MR,Biological_E,(1,_2),1_ >= 0
Q_MR,Biological_E,(1,_2),2_ >= 0
Q_MR,Biological_E,(1,_2),3_ >= 0
Q_MR,Biological_E,(1,_3),1_ >= 0
Q_MR,Biological_E,(1,_3),2_ >= 0
Q_MR,Biological_E,(1,_3),3_ >= 0
Q_MR,Biological_E,(1,_4),1_ >= 0
Q_MR,Biological_E,(1,_4),2_ >= 0
Q_MR,Biological_E,(1,_4),3_ >= 0
Q_MR,Biological_E,(1,_5),1_ >= 0
Q_MR,Biological_E,(1,_5),2_ >= 0
Q_MR,Biological_E,(1,_5),3_ >= 0
Q_MR,Biological_E,(2,_2),1_ >= 0
Q_MR,Biological_E,(2,_2),2_ >= 0
Q_MR,Biological_E,(2,_2),3_ >= 0
Q_MR,Biological_E,(2,_3),1_ >= 0
Q_MR,Biological_E,(2,_3),2_ >= 0
Q_MR,Biological_E,(2,_3),3_ >= 0
Q_MR,Biological_E,(2,_4),1_ >= 0
Q_MR,Biological_E,(2,_4),2_ >= 0
Q_MR,Biological_E,(2,_4),3_ >= 0
Q_MR,Biological_E,(2,_5),1_ >= 0
Q_MR,Biological_E,(2,_5),2_ >= 0
Q_MR,Biological_E,(2,_5),3_ >= 0
Q_MR,Biological_E,(2,_6),1_ >= 0
Q_MR,Biological_E,(2,_6),2_ >= 0
Q_MR,Biological_E,(2,_6),3_ >= 0
Q_MR,Biological_E,(3,_3),1_ >= 0
Q_MR,Biological_E,(3,_3),2_ >= 0
Q_MR,Biological_E,(3,_3),3_ >= 0
Q_MR,Biological_E,(3,_4),1_ >= 0
Q_MR,Biological_E,(3,_4),2_ >= 0
Q_MR,Biological_E,(3,_4),3_ >= 0
Q_MR,Biological_E,(3,_5),1_ >= 0
Q_MR,Biological_E,(3,_5),2_ >= 0
Q_MR,Biological_E,(3,_5),3_ >= 0
Q_MR,Biological_E,(3,_6),1_ >= 0
Q_MR,Biological_E,(3,_6),2_ >= 0
Q_MR,Biological_E,(3,_6),3_ >= 0
Q_MR,Biological_E,(3,_7),1_ >= 0
Q_MR,Biological_E,(3,_7),2_ >= 0
Q_MR,Biological_E,(3,_7),3_ >= 0
Q_MR,Biological_E,(4,_4),1_ >= 0
Q_MR,Biological_E,(4,_4),2_ >= 0
Q_MR,Biological_E,(4,_4),3_ >= 0
Q_MR,Biological_E,(4,_5),1_ >= 0
Q_MR,Biological_E,(4,_5),2_ >= 0
Q_MR,Biological_E,(4,_5),3_ >= 0
Q_MR,Biological_E,(4,_6),1_ >= 0
Q_MR,Biological_E,(4,_6),2_ >= 0
Q_MR,Biological_E,(4,_6),3_ >= 0
Q_MR,Biological_E,(4,_7),1_ >= 0
Q_MR,Biological_E,(4,_7),2_ >= 0
Q_MR,Biological_E,(4,_7),3_ >= 0
Q_MR,Biological_E,(4,_8),1_ >= 0
Q_MR,Biological_E,(4,_8),2_ >= 0
Q_MR,Biological_E,(4,_8),3_ >= 0
Q_MR,Biological_E,(5,_5),1_ >= 0
Q_MR,Biological_E,(5,_5),2_ >= 0
Q_MR,Biological_E,(5,_5),3_ >= 0
Q_MR,Biological_E,(5,_6),1_ >= 0
Q_MR,Biological_E,(5,_6),2_ >= 0
Q_MR,Biological_E,(5,_6),3_ >= 0
Q_MR,Biological_E,(5,_7),1_ >= 0
Q_MR,Biological_E,(5,_7),2_ >= 0
Q_MR,Biological_E,(5,_7),3_ >= 0
Q_MR,Biological_E,(5,_8),1_ >= 0
Q_MR,Biological_E,(5,_8),2_ >= 0
Q_MR,Biological_E,(5,_8),3_ >= 0
Q_MR,Biological_E,(5,_9),1_ >= 0
Q_MR,Biological_E,(5,_9),2_ >= 0
Q_MR,Biological_E,(5,_9),3_ >= 0
Q_MR,Biological_E,(6,_6),1_ >= 0
Q_MR,Biological_E,(6,_6),2_ >= 0
Q_MR,Biological_E,(6,_6),3_ >= 0
Q_MR,Biological_E,(6,_7),1_ >= 0
Q_MR,Biological_E,(6,_7),2_ >= 0
Q_MR,Biological_E,(6,_7),3_ >= 0
Q_MR,Biological_E,(6,_8),1_ >= 0
Q_MR,Biological_E,(6,_8),2_ >= 0
Q_MR,Biological_E,(6,_8),3_ >= 0
Q_MR,Biological_E,(6,_9),1_ >= 0
Q_MR,Biological_E,(6,_9),2_ >= 0
Q_MR,Biological_E,(6,_9),3_ >= 0
Q_MR,Biological_E,(6,_10),1_ >= 0
Q_MR,Biological_E,(6,_10),2_ >= 0
Q_MR,Biological_E,(6,_10),3_ >= 0
Q_MR,Biological_E,(7,_7),1_ >= 0
Q_MR,Biological_E,(7,_7),2_ >= 0
Q_MR,Biological_E,(7,_7),3_ >= 0
Q_MR,Biological_E,(7,_8),1_ >= 0
Q_MR,Biological_E,(7,_8),2_ >= 0
Q_MR,Biological_E,(7,_8),3_ >= 0
Q_MR,Biological_E,(7,_9),1_ >= 0
Q_MR,Biological_E,(7,_9),2_ >= 0
Q_MR,Biological_E,(7,_9),3_ >= 0
Q_MR,Biological_E,(7,_10),1_ >= 0
Q_MR,Biological_E,(7,_10),2_ >= 0
Q_MR,Biological_E,(7,_10),3_ >= 0
Q_MR,Biological_E,(8,_8),1_ >= 0
Q_MR,Biological_E,(8,_8),2_ >= 0
Q_MR,Biological_E,(8,_8),3_ >= 0
Q_MR,Biological_E,(8,_9),1_ >= 0
Q_MR,Biological_E,(8,_9),2_ >= 0
Q_MR,Biological_E,(8,_9),3_ >= 0
Q_MR,Biological_E,(8,_10),1_ >= 0
Q_MR,Biological_E,(8,_10),2_ >= 0
Q_MR,Biological_E,(8,_10),3_ >= 0
Q_MR,Biological_E,(9,_9),1_ >= 0
Q_MR,Biological_E,(9,_9),2_ >= 0
Q_MR,Biological_E,(9,_9),3_ >= 0
Q_MR,Biological_E,(9,_10),1_ >= 0
Q_MR,Biological_E,(9,_10),2_ >= 0
Q_MR,Biological_E,(9,_10),3_ >= 0
Q_MR,Biological_E,(10,_10),1_ >= 0
Q_MR,Biological_E,(10,_10),2_ >= 0
Q_MR,Biological_E,(10,_10),3_ >= 0
Q_MMR,Serum_Institute,(1,_1),1_ >= 0
Q_MMR,Serum_Institute,(1,_1),2_ >= 0
Q_MMR,Serum_Institute,(1,_1),3_ >= 0
Q_MMR,Serum_Institute,(1,_2),1_ >= 0
Q_MMR,Serum_Institute,(1,_2),2_ >= 0
Q_MMR,Serum_Institute,(1,_2),3_ >= 0
Q_MMR,Serum_Institute,(1,_3),1_ >= 0
Q_MMR,Serum_Institute,(1,_3),2_ >= 0
Q_MMR,Serum_Institute,(1,_3),3_ >= 0
Q_MMR,Serum_Institute,(1,_4),1_ >= 0
Q_MMR,Serum_Institute,(1,_4),2_ >= 0
Q_MMR,Serum_Institute,(1,_4),3_ >= 0
Q_MMR,Serum_Institute,(1,_5),1_ >= 0
Q_MMR,Serum_Institute,(1,_5),2_ >= 0
Q_MMR,Serum_Institute,(1,_5),3_ >= 0
Q_MMR,Serum_Institute,(2,_2),1_ >= 0
Q_MMR,Serum_Institute,(2,_2),2_ >= 0
Q_MMR,Serum_Institute,(2,_2),3_ >= 0
Q_MMR,Serum_Institute,(2,_3),1_ >= 0
Q_MMR,Serum_Institute,(2,_3),2_ >= 0
Q_MMR,Serum_Institute,(2,_3),3_ >= 0
Q_MMR,Serum_Institute,(2,_4),1_ >= 0
Q_MMR,Serum_Institute,(2,_4),2_ >= 0
Q_MMR,Serum_Institute,(2,_4),3_ >= 0
Q_MMR,Serum_Institute,(2,_5),1_ >= 0
Q_MMR,Serum_Institute,(2,_5),2_ >= 0
Q_MMR,Serum_Institute,(2,_5),3_ >= 0
Q_MMR,Serum_Institute,(2,_6),1_ >= 0
Q_MMR,Serum_Institute,(2,_6),2_ >= 0
Q_MMR,Serum_Institute,(2,_6),3_ >= 0
Q_MMR,Serum_Institute,(3,_3),1_ >= 0
Q_MMR,Serum_Institute,(3,_3),2_ >= 0
Q_MMR,Serum_Institute,(3,_3),3_ >= 0
Q_MMR,Serum_Institute,(3,_4),1_ >= 0
Q_MMR,Serum_Institute,(3,_4),2_ >= 0
Q_MMR,Serum_Institute,(3,_4),3_ >= 0
Q_MMR,Serum_Institute,(3,_5),1_ >= 0
Q_MMR,Serum_Institute,(3,_5),2_ >= 0
Q_MMR,Serum_Institute,(3,_5),3_ >= 0
Q_MMR,Serum_Institute,(3,_6),1_ >= 0
Q_MMR,Serum_Institute,(3,_6),2_ >= 0
Q_MMR,Serum_Institute,(3,_6),3_ >= 0
Q_MMR,Serum_Institute,(3,_7),1_ >= 0
Q_MMR,Serum_Institute,(3,_7),2_ >= 0
Q_MMR,Serum_Institute,(3,_7),3_ >= 0
Q_MMR,Serum_Institute,(4,_4),1_ >= 0
Q_MMR,Serum_Institute,(4,_4),2_ >= 0
Q_MMR,Serum_Institute,(4,_4),3_ >= 0
Q_MMR,Serum_Institute,(4,_5),1_ >= 0
Q_MMR,Serum_Institute,(4,_5),2_ >= 0
Q_MMR,Serum_Institute,(4,_5),3_ >= 0
Q_MMR,Serum_Institute,(4,_6),1_ >= 0
Q_MMR,Serum_Institute,(4,_6),2_ >= 0
Q_MMR,Serum_Institute,(4,_6),3_ >= 0
Q_MMR,Serum_Institute,(4,_7),1_ >= 0
Q_MMR,Serum_Institute,(4,_7),2_ >= 0
Q_MMR,Serum_Institute,(4,_7),3_ >= 0
Q_MMR,Serum_Institute,(4,_8),1_ >= 0
Q_MMR,Serum_Institute,(4,_8),2_ >= 0
Q_MMR,Serum_Institute,(4,_8),3_ >= 0
Q_MMR,Serum_Institute,(5,_5),1_ >= 0
Q_MMR,Serum_Institute,(5,_5),2_ >= 0
Q_MMR,Serum_Institute,(5,_5),3_ >= 0
Q_MMR,Serum_Institute,(5,_6),1_ >= 0
Q_MMR,Serum_Institute,(5,_6),2_ >= 0
Q_MMR,Serum_Institute,(5,_6),3_ >= 0
Q_MMR,Serum_Institute,(5,_7),1_ >= 0
Q_MMR,Serum_Institute,(5,_7),2_ >= 0
Q_MMR,Serum_Institute,(5,_7),3_ >= 0
Q_MMR,Serum_Institute,(5,_8),1_ >= 0
Q_MMR,Serum_Institute,(5,_8),2_ >= 0
Q_MMR,Serum_Institute,(5,_8),3_ >= 0
Q_MMR,Serum_Institute,(5,_9),1_ >= 0
Q_MMR,Serum_Institute,(5,_9),2_ >= 0
Q_MMR,Serum_Institute,(5,_9),3_ >= 0
Q_MMR,Serum_Institute,(6,_6),1_ >= 0
Q_MMR,Serum_Institute,(6,_6),2_ >= 0
Q_MMR,Serum_Institute,(6,_6),3_ >= 0
Q_MMR,Serum_Institute,(6,_7),1_ >= 0
Q_MMR,Serum_Institute,(6,_7),2_ >= 0
Q_MMR,Serum_Institute,(6,_7),3_ >= 0
Q_MMR,Serum_Institute,(6,_8),1_ >= 0
Q_MMR,Serum_Institute,(6,_8),2_ >= 0
Q_MMR,Serum_Institute,(6,_8),3_ >= 0
Q_MMR,Serum_Institute,(6,_9),1_ >= 0
Q_MMR,Serum_Institute,(6,_9),2_ >= 0
Q_MMR,Serum_Institute,(6,_9),3_ >= 0
Q_MMR,Serum_Institute,(6,_10),1_ >= 0
Q_MMR,Serum_Institute,(6,_10),2_ >= 0
Q_MMR,Serum_Institute,(6,_10),3_ >= 0
Q_MMR,Serum_Institute,(7,_7),1_ >= 0
Q_MMR,Serum_Institute,(7,_7),2_ >= 0
Q_MMR,Serum_Institute,(7,_7),3_ >= 0
Q_MMR,Serum_Institute,(7,_8),1_ >= 0
Q_MMR,Serum_Institute,(7,_8),2_ >= 0
Q_MMR,Serum_Institute,(7,_8),3_ >= 0
Q_MMR,Serum_Institute,(7,_9),1_ >= 0
Q_MMR,Serum_Institute,(7,_9),2_ >= 0
Q_MMR,Serum_Institute,(7,_9),3_ >= 0
Q_MMR,Serum_Institute,(7,_10),1_ >= 0
Q_MMR,Serum_Institute,(7,_10),2_ >= 0
Q_MMR,Serum_Institute,(7,_10),3_ >= 0
Q_MMR,Serum_Institute,(8,_8),1_ >= 0
Q_MMR,Serum_Institute,(8,_8),2_ >= 0
Q_MMR,Serum_Institute,(8,_8),3_ >= 0
Q_MMR,Serum_Institute,(8,_9),1_ >= 0
Q_MMR,Serum_Institute,(8,_9),2_ >= 0
Q_MMR,Serum_Institute,(8,_9),3_ >= 0
Q_MMR,Serum_Institute,(8,_10),1_ >= 0
Q_MMR,Serum_Institute,(8,_10),2_ >= 0
Q_MMR,Serum_Institute,(8,_10),3_ >= 0
Q_MMR,Serum_Institute,(9,_9),1_ >= 0
Q_MMR,Serum_Institute,(9,_9),2_ >= 0
Q_MMR,Serum_Institute,(9,_9),3_ >= 0
Q_MMR,Serum_Institute,(9,_10),1_ >= 0
Q_MMR,Serum_Institute,(9,_10),2_ >= 0
Q_MMR,Serum_Institute,(9,_10),3_ >= 0
Q_MMR,Serum_Institute,(10,_10),1_ >= 0
Q_MMR,Serum_Institute,(10,_10),2_ >= 0
Q_MMR,Serum_Institute,(10,_10),3_ >= 0
Q_MMR,GSK,(1,_1),1_ >= 0
Q_MMR,GSK,(1,_1),2_ >= 0
Q_MMR,GSK,(1,_1),3_ >= 0
Q_MMR,GSK,(1,_2),1_ >= 0
Q_MMR,GSK,(1,_2),2_ >= 0
Q_MMR,GSK,(1,_2),3_ >= 0
Q_MMR,GSK,(1,_3),1_ >= 0
Q_MMR,GSK,(1,_3),2_ >= 0
Q_MMR,GSK,(1,_3),3_ >= 0
Q_MMR,GSK,(1,_4),1_ >= 0
Q_MMR,GSK,(1,_4),2_ >= 0
Q_MMR,GSK,(1,_4),3_ >= 0
Q_MMR,GSK,(1,_5),1_ >= 0
Q_MMR,GSK,(1,_5),2_ >= 0
Q_MMR,GSK,(1,_5),3_ >= 0
Q_MMR,GSK,(2,_2),1_ >= 0
Q_MMR,GSK,(2,_2),2_ >= 0
Q_MMR,GSK,(2,_2),3_ >= 0
Q_MMR,GSK,(2,_3),1_ >= 0
Q_MMR,GSK,(2,_3),2_ >= 0
Q_MMR,GSK,(2,_3),3_ >= 0
Q_MMR,GSK,(2,_4),1_ >= 0
Q_MMR,GSK,(2,_4),2_ >= 0
Q_MMR,GSK,(2,_4),3_ >= 0
Q_MMR,GSK,(2,_5),1_ >= 0
Q_MMR,GSK,(2,_5),2_ >= 0
Q_MMR,GSK,(2,_5),3_ >= 0
Q_MMR,GSK,(2,_6),1_ >= 0
Q_MMR,GSK,(2,_6),2_ >= 0
Q_MMR,GSK,(2,_6),3_ >= 0
Q_MMR,GSK,(3,_3),1_ >= 0
Q_MMR,GSK,(3,_3),2_ >= 0
Q_MMR,GSK,(3,_3),3_ >= 0
Q_MMR,GSK,(3,_4),1_ >= 0
Q_MMR,GSK,(3,_4),2_ >= 0
Q_MMR,GSK,(3,_4),3_ >= 0
Q_MMR,GSK,(3,_5),1_ >= 0
Q_MMR,GSK,(3,_5),2_ >= 0
Q_MMR,GSK,(3,_5),3_ >= 0
Q_MMR,GSK,(3,_6),1_ >= 0
Q_MMR,GSK,(3,_6),2_ >= 0
Q_MMR,GSK,(3,_6),3_ >= 0
Q_MMR,GSK,(3,_7),1_ >= 0
Q_MMR,GSK,(3,_7),2_ >= 0
Q_MMR,GSK,(3,_7),3_ >= 0
Q_MMR,GSK,(4,_4),1_ >= 0
Q_MMR,GSK,(4,_4),2_ >= 0
Q_MMR,GSK,(4,_4),3_ >= 0
Q_MMR,GSK,(4,_5),1_ >= 0
Q_MMR,GSK,(4,_5),2_ >= 0
Q_MMR,GSK,(4,_5),3_ >= 0
Q_MMR,GSK,(4,_6),1_ >= 0
Q_MMR,GSK,(4,_6),2_ >= 0
Q_MMR,GSK,(4,_6),3_ >= 0
Q_MMR,GSK,(4,_7),1_ >= 0
Q_MMR,GSK,(4,_7),2_ >= 0
Q_MMR,GSK,(4,_7),3_ >= 0
Q_MMR,GSK,(4,_8),1_ >= 0
Q_MMR,GSK,(4,_8),2_ >= 0
Q_MMR,GSK,(4,_8),3_ >= 0
Q_MMR,GSK,(5,_5),1_ >= 0
Q_MMR,GSK,(5,_5),2_ >= 0
Q_MMR,GSK,(5,_5),3_ >= 0
Q_MMR,GSK,(5,_6),1_ >= 0
Q_MMR,GSK,(5,_6),2_ >= 0
Q_MMR,GSK,(5,_6),3_ >= 0
Q_MMR,GSK,(5,_7),1_ >= 0
Q_MMR,GSK,(5,_7),2_ >= 0
Q_MMR,GSK,(5,_7),3_ >= 0
Q_MMR,GSK,(5,_8),1_ >= 0
Q_MMR,GSK,(5,_8),2_ >= 0
Q_MMR,GSK,(5,_8),3_ >= 0
Q_MMR,GSK,(5,_9),1_ >= 0
Q_MMR,GSK,(5,_9),2_ >= 0
Q_MMR,GSK,(5,_9),3_ >= 0
Q_MMR,GSK,(6,_6),1_ >= 0
Q_MMR,GSK,(6,_6),2_ >= 0
Q_MMR,GSK,(6,_6),3_ >= 0
Q_MMR,GSK,(6,_7),1_ >= 0
Q_MMR,GSK,(6,_7),2_ >= 0
Q_MMR,GSK,(6,_7),3_ >= 0
Q_MMR,GSK,(6,_8),1_ >= 0
Q_MMR,GSK,(6,_8),2_ >= 0
Q_MMR,GSK,(6,_8),3_ >= 0
Q_MMR,GSK,(6,_9),1_ >= 0
Q_MMR,GSK,(6,_9),2_ >= 0
Q_MMR,GSK,(6,_9),3_ >= 0
Q_MMR,GSK,(6,_10),1_ >= 0
Q_MMR,GSK,(6,_10),2_ >= 0
Q_MMR,GSK,(6,_10),3_ >= 0
Q_MMR,GSK,(7,_7),1_ >= 0
Q_MMR,GSK,(7,_7),2_ >= 0
Q_MMR,GSK,(7,_7),3_ >= 0
Q_MMR,GSK,(7,_8),1_ >= 0
Q_MMR,GSK,(7,_8),2_ >= 0
Q_MMR,GSK,(7,_8),3_ >= 0
Q_MMR,GSK,(7,_9),1_ >= 0
Q_MMR,GSK,(7,_9),2_ >= 0
Q_MMR,GSK,(7,_9),3_ >= 0
Q_MMR,GSK,(7,_10),1_ >= 0
Q_MMR,GSK,(7,_10),2_ >= 0
Q_MMR,GSK,(7,_10),3_ >= 0
Q_MMR,GSK,(8,_8),1_ >= 0
Q_MMR,GSK,(8,_8),2_ >= 0
Q_MMR,GSK,(8,_8),3_ >= 0
Q_MMR,GSK,(8,_9),1_ >= 0
Q_MMR,GSK,(8,_9),2_ >= 0
Q_MMR,GSK,(8,_9),3_ >= 0
Q_MMR,GSK,(8,_10),1_ >= 0
Q_MMR,GSK,(8,_10),2_ >= 0
Q_MMR,GSK,(8,_10),3_ >= 0
Q_MMR,GSK,(9,_9),1_ >= 0
Q_MMR,GSK,(9,_9),2_ >= 0
Q_MMR,GSK,(9,_9),3_ >= 0
Q_MMR,GSK,(9,_10),1_ >= 0
Q_MMR,GSK,(9,_10),2_ >= 0
Q_MMR,GSK,(9,_10),3_ >= 0
Q_MMR,GSK,(10,_10),1_ >= 0
Q_MMR,GSK,(10,_10),2_ >= 0
Q_MMR,GSK,(10,_10),3_ >= 0
Q_TT,Serum_Institute,(1,_1),1_ >= 0
Q_TT,Serum_Institute,(1,_1),2_ >= 0
Q_TT,Serum_Institute,(1,_1),3_ >= 0
Q_TT,Serum_Institute,(1,_2),1_ >= 0
Q_TT,Serum_Institute,(1,_2),2_ >= 0
Q_TT,Serum_Institute,(1,_2),3_ >= 0
Q_TT,Serum_Institute,(1,_3),1_ >= 0
Q_TT,Serum_Institute,(1,_3),2_ >= 0
Q_TT,Serum_Institute,(1,_3),3_ >= 0
Q_TT,Serum_Institute,(1,_4),1_ >= 0
Q_TT,Serum_Institute,(1,_4),2_ >= 0
Q_TT,Serum_Institute,(1,_4),3_ >= 0
Q_TT,Serum_Institute,(1,_5),1_ >= 0
Q_TT,Serum_Institute,(1,_5),2_ >= 0
Q_TT,Serum_Institute,(1,_5),3_ >= 0
Q_TT,Serum_Institute,(2,_2),1_ >= 0
Q_TT,Serum_Institute,(2,_2),2_ >= 0
Q_TT,Serum_Institute,(2,_2),3_ >= 0
Q_TT,Serum_Institute,(2,_3),1_ >= 0
Q_TT,Serum_Institute,(2,_3),2_ >= 0
Q_TT,Serum_Institute,(2,_3),3_ >= 0
Q_TT,Serum_Institute,(2,_4),1_ >= 0
Q_TT,Serum_Institute,(2,_4),2_ >= 0
Q_TT,Serum_Institute,(2,_4),3_ >= 0
Q_TT,Serum_Institute,(2,_5),1_ >= 0
Q_TT,Serum_Institute,(2,_5),2_ >= 0
Q_TT,Serum_Institute,(2,_5),3_ >= 0
Q_TT,Serum_Institute,(2,_6),1_ >= 0
Q_TT,Serum_Institute,(2,_6),2_ >= 0
Q_TT,Serum_Institute,(2,_6),3_ >= 0
Q_TT,Serum_Institute,(3,_3),1_ >= 0
Q_TT,Serum_Institute,(3,_3),2_ >= 0
Q_TT,Serum_Institute,(3,_3),3_ >= 0
Q_TT,Serum_Institute,(3,_4),1_ >= 0
Q_TT,Serum_Institute,(3,_4),2_ >= 0
Q_TT,Serum_Institute,(3,_4),3_ >= 0
Q_TT,Serum_Institute,(3,_5),1_ >= 0
Q_TT,Serum_Institute,(3,_5),2_ >= 0
Q_TT,Serum_Institute,(3,_5),3_ >= 0
Q_TT,Serum_Institute,(3,_6),1_ >= 0
Q_TT,Serum_Institute,(3,_6),2_ >= 0
Q_TT,Serum_Institute,(3,_6),3_ >= 0
Q_TT,Serum_Institute,(3,_7),1_ >= 0
Q_TT,Serum_Institute,(3,_7),2_ >= 0
Q_TT,Serum_Institute,(3,_7),3_ >= 0
Q_TT,Serum_Institute,(4,_4),1_ >= 0
Q_TT,Serum_Institute,(4,_4),2_ >= 0
Q_TT,Serum_Institute,(4,_4),3_ >= 0
Q_TT,Serum_Institute,(4,_5),1_ >= 0
Q_TT,Serum_Institute,(4,_5),2_ >= 0
Q_TT,Serum_Institute,(4,_5),3_ >= 0
Q_TT,Serum_Institute,(4,_6),1_ >= 0
Q_TT,Serum_Institute,(4,_6),2_ >= 0
Q_TT,Serum_Institute,(4,_6),3_ >= 0
Q_TT,Serum_Institute,(4,_7),1_ >= 0
Q_TT,Serum_Institute,(4,_7),2_ >= 0
Q_TT,Serum_Institute,(4,_7),3_ >= 0
Q_TT,Serum_Institute,(4,_8),1_ >= 0
Q_TT,Serum_Institute,(4,_8),2_ >= 0
Q_TT,Serum_Institute,(4,_8),3_ >= 0
Q_TT,Serum_Institute,(5,_5),1_ >= 0
Q_TT,Serum_Institute,(5,_5),2_ >= 0
Q_TT,Serum_Institute,(5,_5),3_ >= 0
Q_TT,Serum_Institute,(5,_6),1_ >= 0
Q_TT,Serum_Institute,(5,_6),2_ >= 0
Q_TT,Serum_Institute,(5,_6),3_ >= 0
Q_TT,Serum_Institute,(5,_7),1_ >= 0
Q_TT,Serum_Institute,(5,_7),2_ >= 0
Q_TT,Serum_Institute,(5,_7),3_ >= 0
Q_TT,Serum_Institute,(5,_8),1_ >= 0
Q_TT,Serum_Institute,(5,_8),2_ >= 0
Q_TT,Serum_Institute,(5,_8),3_ >= 0
Q_TT,Serum_Institute,(5,_9),1_ >= 0
Q_TT,Serum_Institute,(5,_9),2_ >= 0
Q_TT,Serum_Institute,(5,_9),3_ >= 0
Q_TT,Serum_Institute,(6,_6),1_ >= 0
Q_TT,Serum_Institute,(6,_6),2_ >= 0
Q_TT,Serum_Institute,(6,_6),3_ >= 0
Q_TT,Serum_Institute,(6,_7),1_ >= 0
Q_TT,Serum_Institute,(6,_7),2_ >= 0
Q_TT,Serum_Institute,(6,_7),3_ >= 0
Q_TT,Serum_Institute,(6,_8),1_ >= 0
Q_TT,Serum_Institute,(6,_8),2_ >= 0
Q_TT,Serum_Institute,(6,_8),3_ >= 0
Q_TT,Serum_Institute,(6,_9),1_ >= 0
Q_TT,Serum_Institute,(6,_9),2_ >= 0
Q_TT,Serum_Institute,(6,_9),3_ >= 0
Q_TT,Serum_Institute,(6,_10),1_ >= 0
Q_TT,Serum_Institute,(6,_10),2_ >= 0
Q_TT,Serum_Institute,(6,_10),3_ >= 0
Q_TT,Serum_Institute,(7,_7),1_ >= 0
Q_TT,Serum_Institute,(7,_7),2_ >= 0
Q_TT,Serum_Institute,(7,_7),3_ >= 0
Q_TT,Serum_Institute,(7,_8),1_ >= 0
Q_TT,Serum_Institute,(7,_8),2_ >= 0
Q_TT,Serum_Institute,(7,_8),3_ >= 0
Q_TT,Serum_Institute,(7,_9),1_ >= 0
Q_TT,Serum_Institute,(7,_9),2_ >= 0
Q_TT,Serum_Institute,(7,_9),3_ >= 0
Q_TT,Serum_Institute,(7,_10),1_ >= 0
Q_TT,Serum_Institute,(7,_10),2_ >= 0
Q_TT,Serum_Institute,(7,_10),3_ >= 0
Q_TT,Serum_Institute,(8,_8),1_ >= 0
Q_TT,Serum_Institute,(8,_8),2_ >= 0
Q_TT,Serum_Institute,(8,_8),3_ >= 0
Q_TT,Serum_Institute,(8,_9),1_ >= 0
Q_TT,Serum_Institute,(8,_9),2_ >= 0
Q_TT,Serum_Institute,(8,_9),3_ >= 0
Q_TT,Serum_Institute,(8,_10),1_ >= 0
Q_TT,Serum_Institute,(8,_10),2_ >= 0
Q_TT,Serum_Institute,(8,_10),3_ >= 0
Q_TT,Serum_Institute,(9,_9),1_ >= 0
Q_TT,Serum_Institute,(9,_9),2_ >= 0
Q_TT,Serum_Institute,(9,_9),3_ >= 0
Q_TT,Serum_Institute,(9,_10),1_ >= 0
Q_TT,Serum_Institute,(9,_10),2_ >= 0
Q_TT,Serum_Institute,(9,_10),3_ >= 0
Q_TT,Serum_Institute,(10,_10),1_ >= 0
Q_TT,Serum_Institute,(10,_10),2_ >= 0
Q_TT,Serum_Institute,(10,_10),3_ >= 0
Q_TT,PT_Bio,(1,_1),1_ >= 0
Q_TT,PT_Bio,(1,_1),2_ >= 0
Q_TT,PT_Bio,(1,_1),3_ >= 0
Q_TT,PT_Bio,(1,_2),1_ >= 0
Q_TT,PT_Bio,(1,_2),2_ >= 0
Q_TT,PT_Bio,(1,_2),3_ >= 0
Q_TT,PT_Bio,(1,_3),1_ >= 0
Q_TT,PT_Bio,(1,_3),2_ >= 0
Q_TT,PT_Bio,(1,_3),3_ >= 0
Q_TT,PT_Bio,(1,_4),1_ >= 0
Q_TT,PT_Bio,(1,_4),2_ >= 0
Q_TT,PT_Bio,(1,_4),3_ >= 0
Q_TT,PT_Bio,(1,_5),1_ >= 0
Q_TT,PT_Bio,(1,_5),2_ >= 0
Q_TT,PT_Bio,(1,_5),3_ >= 0
Q_TT,PT_Bio,(2,_2),1_ >= 0
Q_TT,PT_Bio,(2,_2),2_ >= 0
Q_TT,PT_Bio,(2,_2),3_ >= 0
Q_TT,PT_Bio,(2,_3),1_ >= 0
Q_TT,PT_Bio,(2,_3),2_ >= 0
Q_TT,PT_Bio,(2,_3),3_ >= 0
Q_TT,PT_Bio,(2,_4),1_ >= 0
Q_TT,PT_Bio,(2,_4),2_ >= 0
Q_TT,PT_Bio,(2,_4),3_ >= 0
Q_TT,PT_Bio,(2,_5),1_ >= 0
Q_TT,PT_Bio,(2,_5),2_ >= 0
Q_TT,PT_Bio,(2,_5),3_ >= 0
Q_TT,PT_Bio,(2,_6),1_ >= 0
Q_TT,PT_Bio,(2,_6),2_ >= 0
Q_TT,PT_Bio,(2,_6),3_ >= 0
Q_TT,PT_Bio,(3,_3),1_ >= 0
Q_TT,PT_Bio,(3,_3),2_ >= 0
Q_TT,PT_Bio,(3,_3),3_ >= 0
Q_TT,PT_Bio,(3,_4),1_ >= 0
Q_TT,PT_Bio,(3,_4),2_ >= 0
Q_TT,PT_Bio,(3,_4),3_ >= 0
Q_TT,PT_Bio,(3,_5),1_ >= 0
Q_TT,PT_Bio,(3,_5),2_ >= 0
Q_TT,PT_Bio,(3,_5),3_ >= 0
Q_TT,PT_Bio,(3,_6),1_ >= 0
Q_TT,PT_Bio,(3,_6),2_ >= 0
Q_TT,PT_Bio,(3,_6),3_ >= 0
Q_TT,PT_Bio,(3,_7),1_ >= 0
Q_TT,PT_Bio,(3,_7),2_ >= 0
Q_TT,PT_Bio,(3,_7),3_ >= 0
Q_TT,PT_Bio,(4,_4),1_ >= 0
Q_TT,PT_Bio,(4,_4),2_ >= 0
Q_TT,PT_Bio,(4,_4),3_ >= 0
Q_TT,PT_Bio,(4,_5),1_ >= 0
Q_TT,PT_Bio,(4,_5),2_ >= 0
Q_TT,PT_Bio,(4,_5),3_ >= 0
Q_TT,PT_Bio,(4,_6),1_ >= 0
Q_TT,PT_Bio,(4,_6),2_ >= 0
Q_TT,PT_Bio,(4,_6),3_ >= 0
Q_TT,PT_Bio,(4,_7),1_ >= 0
Q_TT,PT_Bio,(4,_7),2_ >= 0
Q_TT,PT_Bio,(4,_7),3_ >= 0
Q_TT,PT_Bio,(4,_8),1_ >= 0
Q_TT,PT_Bio,(4,_8),2_ >= 0
Q_TT,PT_Bio,(4,_8),3_ >= 0
Q_TT,PT_Bio,(5,_5),1_ >= 0
Q_TT,PT_Bio,(5,_5),2_ >= 0
Q_TT,PT_Bio,(5,_5),3_ >= 0
Q_TT,PT_Bio,(5,_6),1_ >= 0
Q_TT,PT_Bio,(5,_6),2_ >= 0
Q_TT,PT_Bio,(5,_6),3_ >= 0
Q_TT,PT_Bio,(5,_7),1_ >= 0
Q_TT,PT_Bio,(5,_7),2_ >= 0
Q_TT,PT_Bio,(5,_7),3_ >= 0
Q_TT,PT_Bio,(5,_8),1_ >= 0
Q_TT,PT_Bio,(5,_8),2_ >= 0
Q_TT,PT_Bio,(5,_8),3_ >= 0
Q_TT,PT_Bio,(5,_9),1_ >= 0
Q_TT,PT_Bio,(5,_9),2_ >= 0
Q_TT,PT_Bio,(5,_9),3_ >= 0
Q_TT,PT_Bio,(6,_6),1_ >= 0
Q_TT,PT_Bio,(6,_6),2_ >= 0
Q_TT,PT_Bio,(6,_6),3_ >= 0
Q_TT,PT_Bio,(6,_7),1_ >= 0
Q_TT,PT_Bio,(6,_7),2_ >= 0
Q_TT,PT_Bio,(6,_7),3_ >= 0
Q_TT,PT_Bio,(6,_8),1_ >= 0
Q_TT,PT_Bio,(6,_8),2_ >= 0
Q_TT,PT_Bio,(6,_8),3_ >= 0
Q_TT,PT_Bio,(6,_9),1_ >= 0
Q_TT,PT_Bio,(6,_9),2_ >= 0
Q_TT,PT_Bio,(6,_9),3_ >= 0
Q_TT,PT_Bio,(6,_10),1_ >= 0
Q_TT,PT_Bio,(6,_10),2_ >= 0
Q_TT,PT_Bio,(6,_10),3_ >= 0
Q_TT,PT_Bio,(7,_7),1_ >= 0
Q_TT,PT_Bio,(7,_7),2_ >= 0
Q_TT,PT_Bio,(7,_7),3_ >= 0
Q_TT,PT_Bio,(7,_8),1_ >= 0
Q_TT,PT_Bio,(7,_8),2_ >= 0
Q_TT,PT_Bio,(7,_8),3_ >= 0
Q_TT,PT_Bio,(7,_9),1_ >= 0
Q_TT,PT_Bio,(7,_9),2_ >= 0
Q_TT,PT_Bio,(7,_9),3_ >= 0
Q_TT,PT_Bio,(7,_10),1_ >= 0
Q_TT,PT_Bio,(7,_10),2_ >= 0
Q_TT,PT_Bio,(7,_10),3_ >= 0
Q_TT,PT_Bio,(8,_8),1_ >= 0
Q_TT,PT_Bio,(8,_8),2_ >= 0
Q_TT,PT_Bio,(8,_8),3_ >= 0
Q_TT,PT_Bio,(8,_9),1_ >= 0
Q_TT,PT_Bio,(8,_9),2_ >= 0
Q_TT,PT_Bio,(8,_9),3_ >= 0
Q_TT,PT_Bio,(8,_10),1_ >= 0
Q_TT,PT_Bio,(8,_10),2_ >= 0
Q_TT,PT_Bio,(8,_10),3_ >= 0
Q_TT,PT_Bio,(9,_9),1_ >= 0
Q_TT,PT_Bio,(9,_9),2_ >= 0
Q_TT,PT_Bio,(9,_9),3_ >= 0
Q_TT,PT_Bio,(9,_10),1_ >= 0
Q_TT,PT_Bio,(9,_10),2_ >= 0
Q_TT,PT_Bio,(9,_10),3_ >= 0
Q_TT,PT_Bio,(10,_10),1_ >= 0
Q_TT,PT_Bio,(10,_10),2_ >= 0
Q_TT,PT_Bio,(10,_10),3_ >= 0
Q_TT,BB_NCIPD,(1,_1),1_ >= 0
Q_TT,BB_NCIPD,(1,_1),2_ >= 0
Q_TT,BB_NCIPD,(1,_1),3_ >= 0
Q_TT,BB_NCIPD,(1,_2),1_ >= 0
Q_TT,BB_NCIPD,(1,_2),2_ >= 0
Q_TT,BB_NCIPD,(1,_2),3_ >= 0
Q_TT,BB_NCIPD,(1,_3),1_ >= 0
Q_TT,BB_NCIPD,(1,_3),2_ >= 0
Q_TT,BB_NCIPD,(1,_3),3_ >= 0
Q_TT,BB_NCIPD,(1,_4),1_ >= 0
Q_TT,BB_NCIPD,(1,_4),2_ >= 0
Q_TT,BB_NCIPD,(1,_4),3_ >= 0
Q_TT,BB_NCIPD,(1,_5),1_ >= 0
Q_TT,BB_NCIPD,(1,_5),2_ >= 0
Q_TT,BB_NCIPD,(1,_5),3_ >= 0
Q_TT,BB_NCIPD,(2,_2),1_ >= 0
Q_TT,BB_NCIPD,(2,_2),2_ >= 0
Q_TT,BB_NCIPD,(2,_2),3_ >= 0
Q_TT,BB_NCIPD,(2,_3),1_ >= 0
Q_TT,BB_NCIPD,(2,_3),2_ >= 0
Q_TT,BB_NCIPD,(2,_3),3_ >= 0
Q_TT,BB_NCIPD,(2,_4),1_ >= 0
Q_TT,BB_NCIPD,(2,_4),2_ >= 0
Q_TT,BB_NCIPD,(2,_4),3_ >= 0
Q_TT,BB_NCIPD,(2,_5),1_ >= 0
Q_TT,BB_NCIPD,(2,_5),2_ >= 0
Q_TT,BB_NCIPD,(2,_5),3_ >= 0
Q_TT,BB_NCIPD,(2,_6),1_ >= 0
Q_TT,BB_NCIPD,(2,_6),2_ >= 0
Q_TT,BB_NCIPD,(2,_6),3_ >= 0
Q_TT,BB_NCIPD,(3,_3),1_ >= 0
Q_TT,BB_NCIPD,(3,_3),2_ >= 0
Q_TT,BB_NCIPD,(3,_3),3_ >= 0
Q_TT,BB_NCIPD,(3,_4),1_ >= 0
Q_TT,BB_NCIPD,(3,_4),2_ >= 0
Q_TT,BB_NCIPD,(3,_4),3_ >= 0
Q_TT,BB_NCIPD,(3,_5),1_ >= 0
Q_TT,BB_NCIPD,(3,_5),2_ >= 0
Q_TT,BB_NCIPD,(3,_5),3_ >= 0
Q_TT,BB_NCIPD,(3,_6),1_ >= 0
Q_TT,BB_NCIPD,(3,_6),2_ >= 0
Q_TT,BB_NCIPD,(3,_6),3_ >= 0
Q_TT,BB_NCIPD,(3,_7),1_ >= 0
Q_TT,BB_NCIPD,(3,_7),2_ >= 0
Q_TT,BB_NCIPD,(3,_7),3_ >= 0
Q_TT,BB_NCIPD,(4,_4),1_ >= 0
Q_TT,BB_NCIPD,(4,_4),2_ >= 0
Q_TT,BB_NCIPD,(4,_4),3_ >= 0
Q_TT,BB_NCIPD,(4,_5),1_ >= 0
Q_TT,BB_NCIPD,(4,_5),2_ >= 0
Q_TT,BB_NCIPD,(4,_5),3_ >= 0
Q_TT,BB_NCIPD,(4,_6),1_ >= 0
Q_TT,BB_NCIPD,(4,_6),2_ >= 0
Q_TT,BB_NCIPD,(4,_6),3_ >= 0
Q_TT,BB_NCIPD,(4,_7),1_ >= 0
Q_TT,BB_NCIPD,(4,_7),2_ >= 0
Q_TT,BB_NCIPD,(4,_7),3_ >= 0
Q_TT,BB_NCIPD,(4,_8),1_ >= 0
Q_TT,BB_NCIPD,(4,_8),2_ >= 0
Q_TT,BB_NCIPD,(4,_8),3_ >= 0
Q_TT,BB_NCIPD,(5,_5),1_ >= 0
Q_TT,BB_NCIPD,(5,_5),2_ >= 0
Q_TT,BB_NCIPD,(5,_5),3_ >= 0
Q_TT,BB_NCIPD,(5,_6),1_ >= 0
Q_TT,BB_NCIPD,(5,_6),2_ >= 0
Q_TT,BB_NCIPD,(5,_6),3_ >= 0
Q_TT,BB_NCIPD,(5,_7),1_ >= 0
Q_TT,BB_NCIPD,(5,_7),2_ >= 0
Q_TT,BB_NCIPD,(5,_7),3_ >= 0
Q_TT,BB_NCIPD,(5,_8),1_ >= 0
Q_TT,BB_NCIPD,(5,_8),2_ >= 0
Q_TT,BB_NCIPD,(5,_8),3_ >= 0
Q_TT,BB_NCIPD,(5,_9),1_ >= 0
Q_TT,BB_NCIPD,(5,_9),2_ >= 0
Q_TT,BB_NCIPD,(5,_9),3_ >= 0
Q_TT,BB_NCIPD,(6,_6),1_ >= 0
Q_TT,BB_NCIPD,(6,_6),2_ >= 0
Q_TT,BB_NCIPD,(6,_6),3_ >= 0
Q_TT,BB_NCIPD,(6,_7),1_ >= 0
Q_TT,BB_NCIPD,(6,_7),2_ >= 0
Q_TT,BB_NCIPD,(6,_7),3_ >= 0
Q_TT,BB_NCIPD,(6,_8),1_ >= 0
Q_TT,BB_NCIPD,(6,_8),2_ >= 0
Q_TT,BB_NCIPD,(6,_8),3_ >= 0
Q_TT,BB_NCIPD,(6,_9),1_ >= 0
Q_TT,BB_NCIPD,(6,_9),2_ >= 0
Q_TT,BB_NCIPD,(6,_9),3_ >= 0
Q_TT,BB_NCIPD,(6,_10),1_ >= 0
Q_TT,BB_NCIPD,(6,_10),2_ >= 0
Q_TT,BB_NCIPD,(6,_10),3_ >= 0
Q_TT,BB_NCIPD,(7,_7),1_ >= 0
Q_TT,BB_NCIPD,(7,_7),2_ >= 0
Q_TT,BB_NCIPD,(7,_7),3_ >= 0
Q_TT,BB_NCIPD,(7,_8),1_ >= 0
Q_TT,BB_NCIPD,(7,_8),2_ >= 0
Q_TT,BB_NCIPD,(7,_8),3_ >= 0
Q_TT,BB_NCIPD,(7,_9),1_ >= 0
Q_TT,BB_NCIPD,(7,_9),2_ >= 0
Q_TT,BB_NCIPD,(7,_9),3_ >= 0
Q_TT,BB_NCIPD,(7,_10),1_ >= 0
Q_TT,BB_NCIPD,(7,_10),2_ >= 0
Q_TT,BB_NCIPD,(7,_10),3_ >= 0
Q_TT,BB_NCIPD,(8,_8),1_ >= 0
Q_TT,BB_NCIPD,(8,_8),2_ >= 0
Q_TT,BB_NCIPD,(8,_8),3_ >= 0
Q_TT,BB_NCIPD,(8,_9),1_ >= 0
Q_TT,BB_NCIPD,(8,_9),2_ >= 0
Q_TT,BB_NCIPD,(8,_9),3_ >= 0
Q_TT,BB_NCIPD,(8,_10),1_ >= 0
Q_TT,BB_NCIPD,(8,_10),2_ >= 0
Q_TT,BB_NCIPD,(8,_10),3_ >= 0
Q_TT,BB_NCIPD,(9,_9),1_ >= 0
Q_TT,BB_NCIPD,(9,_9),2_ >= 0
Q_TT,BB_NCIPD,(9,_9),3_ >= 0
Q_TT,BB_NCIPD,(9,_10),1_ >= 0
Q_TT,BB_NCIPD,(9,_10),2_ >= 0
Q_TT,BB_NCIPD,(9,_10),3_ >= 0
Q_TT,BB_NCIPD,(10,_10),1_ >= 0
Q_TT,BB_NCIPD,(10,_10),2_ >= 0
Q_TT,BB_NCIPD,(10,_10),3_ >= 0
Q_TT,Biological_E,(1,_1),1_ >= 0
Q_TT,Biological_E,(1,_1),2_ >= 0
Q_TT,Biological_E,(1,_1),3_ >= 0
Q_TT,Biological_E,(1,_2),1_ >= 0
Q_TT,Biological_E,(1,_2),2_ >= 0
Q_TT,Biological_E,(1,_2),3_ >= 0
Q_TT,Biological_E,(1,_3),1_ >= 0
Q_TT,Biological_E,(1,_3),2_ >= 0
Q_TT,Biological_E,(1,_3),3_ >= 0
Q_TT,Biological_E,(1,_4),1_ >= 0
Q_TT,Biological_E,(1,_4),2_ >= 0
Q_TT,Biological_E,(1,_4),3_ >= 0
Q_TT,Biological_E,(1,_5),1_ >= 0
Q_TT,Biological_E,(1,_5),2_ >= 0
Q_TT,Biological_E,(1,_5),3_ >= 0
Q_TT,Biological_E,(2,_2),1_ >= 0
Q_TT,Biological_E,(2,_2),2_ >= 0
Q_TT,Biological_E,(2,_2),3_ >= 0
Q_TT,Biological_E,(2,_3),1_ >= 0
Q_TT,Biological_E,(2,_3),2_ >= 0
Q_TT,Biological_E,(2,_3),3_ >= 0
Q_TT,Biological_E,(2,_4),1_ >= 0
Q_TT,Biological_E,(2,_4),2_ >= 0
Q_TT,Biological_E,(2,_4),3_ >= 0
Q_TT,Biological_E,(2,_5),1_ >= 0
Q_TT,Biological_E,(2,_5),2_ >= 0
Q_TT,Biological_E,(2,_5),3_ >= 0
Q_TT,Biological_E,(2,_6),1_ >= 0
Q_TT,Biological_E,(2,_6),2_ >= 0
Q_TT,Biological_E,(2,_6),3_ >= 0
Q_TT,Biological_E,(3,_3),1_ >= 0
Q_TT,Biological_E,(3,_3),2_ >= 0
Q_TT,Biological_E,(3,_3),3_ >= 0
Q_TT,Biological_E,(3,_4),1_ >= 0
Q_TT,Biological_E,(3,_4),2_ >= 0
Q_TT,Biological_E,(3,_4),3_ >= 0
Q_TT,Biological_E,(3,_5),1_ >= 0
Q_TT,Biological_E,(3,_5),2_ >= 0
Q_TT,Biological_E,(3,_5),3_ >= 0
Q_TT,Biological_E,(3,_6),1_ >= 0
Q_TT,Biological_E,(3,_6),2_ >= 0
Q_TT,Biological_E,(3,_6),3_ >= 0
Q_TT,Biological_E,(3,_7),1_ >= 0
Q_TT,Biological_E,(3,_7),2_ >= 0
Q_TT,Biological_E,(3,_7),3_ >= 0
Q_TT,Biological_E,(4,_4),1_ >= 0
Q_TT,Biological_E,(4,_4),2_ >= 0
Q_TT,Biological_E,(4,_4),3_ >= 0
Q_TT,Biological_E,(4,_5),1_ >= 0
Q_TT,Biological_E,(4,_5),2_ >= 0
Q_TT,Biological_E,(4,_5),3_ >= 0
Q_TT,Biological_E,(4,_6),1_ >= 0
Q_TT,Biological_E,(4,_6),2_ >= 0
Q_TT,Biological_E,(4,_6),3_ >= 0
Q_TT,Biological_E,(4,_7),1_ >= 0
Q_TT,Biological_E,(4,_7),2_ >= 0
Q_TT,Biological_E,(4,_7),3_ >= 0
Q_TT,Biological_E,(4,_8),1_ >= 0
Q_TT,Biological_E,(4,_8),2_ >= 0
Q_TT,Biological_E,(4,_8),3_ >= 0
Q_TT,Biological_E,(5,_5),1_ >= 0
Q_TT,Biological_E,(5,_5),2_ >= 0
Q_TT,Biological_E,(5,_5),3_ >= 0
Q_TT,Biological_E,(5,_6),1_ >= 0
Q_TT,Biological_E,(5,_6),2_ >= 0
Q_TT,Biological_E,(5,_6),3_ >= 0
Q_TT,Biological_E,(5,_7),1_ >= 0
Q_TT,Biological_E,(5,_7),2_ >= 0
Q_TT,Biological_E,(5,_7),3_ >= 0
Q_TT,Biological_E,(5,_8),1_ >= 0
Q_TT,Biological_E,(5,_8),2_ >= 0
Q_TT,Biological_E,(5,_8),3_ >= 0
Q_TT,Biological_E,(5,_9),1_ >= 0
Q_TT,Biological_E,(5,_9),2_ >= 0
Q_TT,Biological_E,(5,_9),3_ >= 0
Q_TT,Biological_E,(6,_6),1_ >= 0
Q_TT,Biological_E,(6,_6),2_ >= 0
Q_TT,Biological_E,(6,_6),3_ >= 0
Q_TT,Biological_E,(6,_7),1_ >= 0
Q_TT,Biological_E,(6,_7),2_ >= 0
Q_TT,Biological_E,(6,_7),3_ >= 0
Q_TT,Biological_E,(6,_8),1_ >= 0
Q_TT,Biological_E,(6,_8),2_ >= 0
Q_TT,Biological_E,(6,_8),3_ >= 0
Q_TT,Biological_E,(6,_9),1_ >= 0
Q_TT,Biological_E,(6,_9),2_ >= 0
Q_TT,Biological_E,(6,_9),3_ >= 0
Q_TT,Biological_E,(6,_10),1_ >= 0
Q_TT,Biological_E,(6,_10),2_ >= 0
Q_TT,Biological_E,(6,_10),3_ >= 0
Q_TT,Biological_E,(7,_7),1_ >= 0
Q_TT,Biological_E,(7,_7),2_ >= 0
Q_TT,Biological_E,(7,_7),3_ >= 0
Q_TT,Biological_E,(7,_8),1_ >= 0
Q_TT,Biological_E,(7,_8),2_ >= 0
Q_TT,Biological_E,(7,_8),3_ >= 0
Q_TT,Biological_E,(7,_9),1_ >= 0
Q_TT,Biological_E,(7,_9),2_ >= 0
Q_TT,Biological_E,(7,_9),3_ >= 0
Q_TT,Biological_E,(7,_10),1_ >= 0
Q_TT,Biological_E,(7,_10),2_ >= 0
Q_TT,Biological_E,(7,_10),3_ >= 0
Q_TT,Biological_E,(8,_8),1_ >= 0
Q_TT,Biological_E,(8,_8),2_ >= 0
Q_TT,Biological_E,(8,_8),3_ >= 0
Q_TT,Biological_E,(8,_9),1_ >= 0
Q_TT,Biological_E,(8,_9),2_ >= 0
Q_TT,Biological_E,(8,_9),3_ >= 0
Q_TT,Biological_E,(8,_10),1_ >= 0
Q_TT,Biological_E,(8,_10),2_ >= 0
Q_TT,Biological_E,(8,_10),3_ >= 0
Q_TT,Biological_E,(9,_9),1_ >= 0
Q_TT,Biological_E,(9,_9),2_ >= 0
Q_TT,Biological_E,(9,_9),3_ >= 0
Q_TT,Biological_E,(9,_10),1_ >= 0
Q_TT,Biological_E,(9,_10),2_ >= 0
Q_TT,Biological_E,(9,_10),3_ >= 0
Q_TT,Biological_E,(10,_10),1_ >= 0
Q_TT,Biological_E,(10,_10),2_ >= 0
Q_TT,Biological_E,(10,_10),3_ >= 0
Q_HepB,Serum_Institute,(1,_1),1_ >= 0
Q_HepB,Serum_Institute,(1,_1),2_ >= 0
Q_HepB,Serum_Institute,(1,_1),3_ >= 0
Q_HepB,Serum_Institute,(1,_2),1_ >= 0
Q_HepB,Serum_Institute,(1,_2),2_ >= 0
Q_HepB,Serum_Institute,(1,_2),3_ >= 0
Q_HepB,Serum_Institute,(1,_3),1_ >= 0
Q_HepB,Serum_Institute,(1,_3),2_ >= 0
Q_HepB,Serum_Institute,(1,_3),3_ >= 0
Q_HepB,Serum_Institute,(1,_4),1_ >= 0
Q_HepB,Serum_Institute,(1,_4),2_ >= 0
Q_HepB,Serum_Institute,(1,_4),3_ >= 0
Q_HepB,Serum_Institute,(1,_5),1_ >= 0
Q_HepB,Serum_Institute,(1,_5),2_ >= 0
Q_HepB,Serum_Institute,(1,_5),3_ >= 0
Q_HepB,Serum_Institute,(2,_2),1_ >= 0
Q_HepB,Serum_Institute,(2,_2),2_ >= 0
Q_HepB,Serum_Institute,(2,_2),3_ >= 0
Q_HepB,Serum_Institute,(2,_3),1_ >= 0
Q_HepB,Serum_Institute,(2,_3),2_ >= 0
Q_HepB,Serum_Institute,(2,_3),3_ >= 0
Q_HepB,Serum_Institute,(2,_4),1_ >= 0
Q_HepB,Serum_Institute,(2,_4),2_ >= 0
Q_HepB,Serum_Institute,(2,_4),3_ >= 0
Q_HepB,Serum_Institute,(2,_5),1_ >= 0
Q_HepB,Serum_Institute,(2,_5),2_ >= 0
Q_HepB,Serum_Institute,(2,_5),3_ >= 0
Q_HepB,Serum_Institute,(2,_6),1_ >= 0
Q_HepB,Serum_Institute,(2,_6),2_ >= 0
Q_HepB,Serum_Institute,(2,_6),3_ >= 0
Q_HepB,Serum_Institute,(3,_3),1_ >= 0
Q_HepB,Serum_Institute,(3,_3),2_ >= 0
Q_HepB,Serum_Institute,(3,_3),3_ >= 0
Q_HepB,Serum_Institute,(3,_4),1_ >= 0
Q_HepB,Serum_Institute,(3,_4),2_ >= 0
Q_HepB,Serum_Institute,(3,_4),3_ >= 0
Q_HepB,Serum_Institute,(3,_5),1_ >= 0
Q_HepB,Serum_Institute,(3,_5),2_ >= 0
Q_HepB,Serum_Institute,(3,_5),3_ >= 0
Q_HepB,Serum_Institute,(3,_6),1_ >= 0
Q_HepB,Serum_Institute,(3,_6),2_ >= 0
Q_HepB,Serum_Institute,(3,_6),3_ >= 0
Q_HepB,Serum_Institute,(3,_7),1_ >= 0
Q_HepB,Serum_Institute,(3,_7),2_ >= 0
Q_HepB,Serum_Institute,(3,_7),3_ >= 0
Q_HepB,Serum_Institute,(4,_4),1_ >= 0
Q_HepB,Serum_Institute,(4,_4),2_ >= 0
Q_HepB,Serum_Institute,(4,_4),3_ >= 0
Q_HepB,Serum_Institute,(4,_5),1_ >= 0
Q_HepB,Serum_Institute,(4,_5),2_ >= 0
Q_HepB,Serum_Institute,(4,_5),3_ >= 0
Q_HepB,Serum_Institute,(4,_6),1_ >= 0
Q_HepB,Serum_Institute,(4,_6),2_ >= 0
Q_HepB,Serum_Institute,(4,_6),3_ >= 0
Q_HepB,Serum_Institute,(4,_7),1_ >= 0
Q_HepB,Serum_Institute,(4,_7),2_ >= 0
Q_HepB,Serum_Institute,(4,_7),3_ >= 0
Q_HepB,Serum_Institute,(4,_8),1_ >= 0
Q_HepB,Serum_Institute,(4,_8),2_ >= 0
Q_HepB,Serum_Institute,(4,_8),3_ >= 0
Q_HepB,Serum_Institute,(5,_5),1_ >= 0
Q_HepB,Serum_Institute,(5,_5),2_ >= 0
Q_HepB,Serum_Institute,(5,_5),3_ >= 0
Q_HepB,Serum_Institute,(5,_6),1_ >= 0
Q_HepB,Serum_Institute,(5,_6),2_ >= 0
Q_HepB,Serum_Institute,(5,_6),3_ >= 0
Q_HepB,Serum_Institute,(5,_7),1_ >= 0
Q_HepB,Serum_Institute,(5,_7),2_ >= 0
Q_HepB,Serum_Institute,(5,_7),3_ >= 0
Q_HepB,Serum_Institute,(5,_8),1_ >= 0
Q_HepB,Serum_Institute,(5,_8),2_ >= 0
Q_HepB,Serum_Institute,(5,_8),3_ >= 0
Q_HepB,Serum_Institute,(5,_9),1_ >= 0
Q_HepB,Serum_Institute,(5,_9),2_ >= 0
Q_HepB,Serum_Institute,(5,_9),3_ >= 0
Q_HepB,Serum_Institute,(6,_6),1_ >= 0
Q_HepB,Serum_Institute,(6,_6),2_ >= 0
Q_HepB,Serum_Institute,(6,_6),3_ >= 0
Q_HepB,Serum_Institute,(6,_7),1_ >= 0
Q_HepB,Serum_Institute,(6,_7),2_ >= 0
Q_HepB,Serum_Institute,(6,_7),3_ >= 0
Q_HepB,Serum_Institute,(6,_8),1_ >= 0
Q_HepB,Serum_Institute,(6,_8),2_ >= 0
Q_HepB,Serum_Institute,(6,_8),3_ >= 0
Q_HepB,Serum_Institute,(6,_9),1_ >= 0
Q_HepB,Serum_Institute,(6,_9),2_ >= 0
Q_HepB,Serum_Institute,(6,_9),3_ >= 0
Q_HepB,Serum_Institute,(6,_10),1_ >= 0
Q_HepB,Serum_Institute,(6,_10),2_ >= 0
Q_HepB,Serum_Institute,(6,_10),3_ >= 0
Q_HepB,Serum_Institute,(7,_7),1_ >= 0
Q_HepB,Serum_Institute,(7,_7),2_ >= 0
Q_HepB,Serum_Institute,(7,_7),3_ >= 0
Q_HepB,Serum_Institute,(7,_8),1_ >= 0
Q_HepB,Serum_Institute,(7,_8),2_ >= 0
Q_HepB,Serum_Institute,(7,_8),3_ >= 0
Q_HepB,Serum_Institute,(7,_9),1_ >= 0
Q_HepB,Serum_Institute,(7,_9),2_ >= 0
Q_HepB,Serum_Institute,(7,_9),3_ >= 0
Q_HepB,Serum_Institute,(7,_10),1_ >= 0
Q_HepB,Serum_Institute,(7,_10),2_ >= 0
Q_HepB,Serum_Institute,(7,_10),3_ >= 0
Q_HepB,Serum_Institute,(8,_8),1_ >= 0
Q_HepB,Serum_Institute,(8,_8),2_ >= 0
Q_HepB,Serum_Institute,(8,_8),3_ >= 0
Q_HepB,Serum_Institute,(8,_9),1_ >= 0
Q_HepB,Serum_Institute,(8,_9),2_ >= 0
Q_HepB,Serum_Institute,(8,_9),3_ >= 0
Q_HepB,Serum_Institute,(8,_10),1_ >= 0
Q_HepB,Serum_Institute,(8,_10),2_ >= 0
Q_HepB,Serum_Institute,(8,_10),3_ >= 0
Q_HepB,Serum_Institute,(9,_9),1_ >= 0
Q_HepB,Serum_Institute,(9,_9),2_ >= 0
Q_HepB,Serum_Institute,(9,_9),3_ >= 0
Q_HepB,Serum_Institute,(9,_10),1_ >= 0
Q_HepB,Serum_Institute,(9,_10),2_ >= 0
Q_HepB,Serum_Institute,(9,_10),3_ >= 0
Q_HepB,Serum_Institute,(10,_10),1_ >= 0
Q_HepB,Serum_Institute,(10,_10),2_ >= 0
Q_HepB,Serum_Institute,(10,_10),3_ >= 0
Q_HepB,LG_Chem,(1,_1),1_ >= 0
Q_HepB,LG_Chem,(1,_1),2_ >= 0
Q_HepB,LG_Chem,(1,_1),3_ >= 0
Q_HepB,LG_Chem,(1,_2),1_ >= 0
Q_HepB,LG_Chem,(1,_2),2_ >= 0
Q_HepB,LG_Chem,(1,_2),3_ >= 0
Q_HepB,LG_Chem,(1,_3),1_ >= 0
Q_HepB,LG_Chem,(1,_3),2_ >= 0
Q_HepB,LG_Chem,(1,_3),3_ >= 0
Q_HepB,LG_Chem,(1,_4),1_ >= 0
Q_HepB,LG_Chem,(1,_4),2_ >= 0
Q_HepB,LG_Chem,(1,_4),3_ >= 0
Q_HepB,LG_Chem,(1,_5),1_ >= 0
Q_HepB,LG_Chem,(1,_5),2_ >= 0
Q_HepB,LG_Chem,(1,_5),3_ >= 0
Q_HepB,LG_Chem,(2,_2),1_ >= 0
Q_HepB,LG_Chem,(2,_2),2_ >= 0
Q_HepB,LG_Chem,(2,_2),3_ >= 0
Q_HepB,LG_Chem,(2,_3),1_ >= 0
Q_HepB,LG_Chem,(2,_3),2_ >= 0
Q_HepB,LG_Chem,(2,_3),3_ >= 0
Q_HepB,LG_Chem,(2,_4),1_ >= 0
Q_HepB,LG_Chem,(2,_4),2_ >= 0
Q_HepB,LG_Chem,(2,_4),3_ >= 0
Q_HepB,LG_Chem,(2,_5),1_ >= 0
Q_HepB,LG_Chem,(2,_5),2_ >= 0
Q_HepB,LG_Chem,(2,_5),3_ >= 0
Q_HepB,LG_Chem,(2,_6),1_ >= 0
Q_HepB,LG_Chem,(2,_6),2_ >= 0
Q_HepB,LG_Chem,(2,_6),3_ >= 0
Q_HepB,LG_Chem,(3,_3),1_ >= 0
Q_HepB,LG_Chem,(3,_3),2_ >= 0
Q_HepB,LG_Chem,(3,_3),3_ >= 0
Q_HepB,LG_Chem,(3,_4),1_ >= 0
Q_HepB,LG_Chem,(3,_4),2_ >= 0
Q_HepB,LG_Chem,(3,_4),3_ >= 0
Q_HepB,LG_Chem,(3,_5),1_ >= 0
Q_HepB,LG_Chem,(3,_5),2_ >= 0
Q_HepB,LG_Chem,(3,_5),3_ >= 0
Q_HepB,LG_Chem,(3,_6),1_ >= 0
Q_HepB,LG_Chem,(3,_6),2_ >= 0
Q_HepB,LG_Chem,(3,_6),3_ >= 0
Q_HepB,LG_Chem,(3,_7),1_ >= 0
Q_HepB,LG_Chem,(3,_7),2_ >= 0
Q_HepB,LG_Chem,(3,_7),3_ >= 0
Q_HepB,LG_Chem,(4,_4),1_ >= 0
Q_HepB,LG_Chem,(4,_4),2_ >= 0
Q_HepB,LG_Chem,(4,_4),3_ >= 0
Q_HepB,LG_Chem,(4,_5),1_ >= 0
Q_HepB,LG_Chem,(4,_5),2_ >= 0
Q_HepB,LG_Chem,(4,_5),3_ >= 0
Q_HepB,LG_Chem,(4,_6),1_ >= 0
Q_HepB,LG_Chem,(4,_6),2_ >= 0
Q_HepB,LG_Chem,(4,_6),3_ >= 0
Q_HepB,LG_Chem,(4,_7),1_ >= 0
Q_HepB,LG_Chem,(4,_7),2_ >= 0
Q_HepB,LG_Chem,(4,_7),3_ >= 0
Q_HepB,LG_Chem,(4,_8),1_ >= 0
Q_HepB,LG_Chem,(4,_8),2_ >= 0
Q_HepB,LG_Chem,(4,_8),3_ >= 0
Q_HepB,LG_Chem,(5,_5),1_ >= 0
Q_HepB,LG_Chem,(5,_5),2_ >= 0
Q_HepB,LG_Chem,(5,_5),3_ >= 0
Q_HepB,LG_Chem,(5,_6),1_ >= 0
Q_HepB,LG_Chem,(5,_6),2_ >= 0
Q_HepB,LG_Chem,(5,_6),3_ >= 0
Q_HepB,LG_Chem,(5,_7),1_ >= 0
Q_HepB,LG_Chem,(5,_7),2_ >= 0
Q_HepB,LG_Chem,(5,_7),3_ >= 0
Q_HepB,LG_Chem,(5,_8),1_ >= 0
Q_HepB,LG_Chem,(5,_8),2_ >= 0
Q_HepB,LG_Chem,(5,_8),3_ >= 0
Q_HepB,LG_Chem,(5,_9),1_ >= 0
Q_HepB,LG_Chem,(5,_9),2_ >= 0
Q_HepB,LG_Chem,(5,_9),3_ >= 0
Q_HepB,LG_Chem,(6,_6),1_ >= 0
Q_HepB,LG_Chem,(6,_6),2_ >= 0
Q_HepB,LG_Chem,(6,_6),3_ >= 0
Q_HepB,LG_Chem,(6,_7),1_ >= 0
Q_HepB,LG_Chem,(6,_7),2_ >= 0
Q_HepB,LG_Chem,(6,_7),3_ >= 0
Q_HepB,LG_Chem,(6,_8),1_ >= 0
Q_HepB,LG_Chem,(6,_8),2_ >= 0
Q_HepB,LG_Chem,(6,_8),3_ >= 0
Q_HepB,LG_Chem,(6,_9),1_ >= 0
Q_HepB,LG_Chem,(6,_9),2_ >= 0
Q_HepB,LG_Chem,(6,_9),3_ >= 0
Q_HepB,LG_Chem,(6,_10),1_ >= 0
Q_HepB,LG_Chem,(6,_10),2_ >= 0
Q_HepB,LG_Chem,(6,_10),3_ >= 0
Q_HepB,LG_Chem,(7,_7),1_ >= 0
Q_HepB,LG_Chem,(7,_7),2_ >= 0
Q_HepB,LG_Chem,(7,_7),3_ >= 0
Q_HepB,LG_Chem,(7,_8),1_ >= 0
Q_HepB,LG_Chem,(7,_8),2_ >= 0
Q_HepB,LG_Chem,(7,_8),3_ >= 0
Q_HepB,LG_Chem,(7,_9),1_ >= 0
Q_HepB,LG_Chem,(7,_9),2_ >= 0
Q_HepB,LG_Chem,(7,_9),3_ >= 0
Q_HepB,LG_Chem,(7,_10),1_ >= 0
Q_HepB,LG_Chem,(7,_10),2_ >= 0
Q_HepB,LG_Chem,(7,_10),3_ >= 0
Q_HepB,LG_Chem,(8,_8),1_ >= 0
Q_HepB,LG_Chem,(8,_8),2_ >= 0
Q_HepB,LG_Chem,(8,_8),3_ >= 0
Q_HepB,LG_Chem,(8,_9),1_ >= 0
Q_HepB,LG_Chem,(8,_9),2_ >= 0
Q_HepB,LG_Chem,(8,_9),3_ >= 0
Q_HepB,LG_Chem,(8,_10),1_ >= 0
Q_HepB,LG_Chem,(8,_10),2_ >= 0
Q_HepB,LG_Chem,(8,_10),3_ >= 0
Q_HepB,LG_Chem,(9,_9),1_ >= 0
Q_HepB,LG_Chem,(9,_9),2_ >= 0
Q_HepB,LG_Chem,(9,_9),3_ >= 0
Q_HepB,LG_Chem,(9,_10),1_ >= 0
Q_HepB,LG_Chem,(9,_10),2_ >= 0
Q_HepB,LG_Chem,(9,_10),3_ >= 0
Q_HepB,LG_Chem,(10,_10),1_ >= 0
Q_HepB,LG_Chem,(10,_10),2_ >= 0
Q_HepB,LG_Chem,(10,_10),3_ >= 0
Q_Hib,Serum_Institute,(1,_1),1_ >= 0
Q_Hib,Serum_Institute,(1,_1),2_ >= 0
Q_Hib,Serum_Institute,(1,_1),3_ >= 0
Q_Hib,Serum_Institute,(1,_2),1_ >= 0
Q_Hib,Serum_Institute,(1,_2),2_ >= 0
Q_Hib,Serum_Institute,(1,_2),3_ >= 0
Q_Hib,Serum_Institute,(1,_3),1_ >= 0
Q_Hib,Serum_Institute,(1,_3),2_ >= 0
Q_Hib,Serum_Institute,(1,_3),3_ >= 0
Q_Hib,Serum_Institute,(1,_4),1_ >= 0
Q_Hib,Serum_Institute,(1,_4),2_ >= 0
Q_Hib,Serum_Institute,(1,_4),3_ >= 0
Q_Hib,Serum_Institute,(1,_5),1_ >= 0
Q_Hib,Serum_Institute,(1,_5),2_ >= 0
Q_Hib,Serum_Institute,(1,_5),3_ >= 0
Q_Hib,Serum_Institute,(2,_2),1_ >= 0
Q_Hib,Serum_Institute,(2,_2),2_ >= 0
Q_Hib,Serum_Institute,(2,_2),3_ >= 0
Q_Hib,Serum_Institute,(2,_3),1_ >= 0
Q_Hib,Serum_Institute,(2,_3),2_ >= 0
Q_Hib,Serum_Institute,(2,_3),3_ >= 0
Q_Hib,Serum_Institute,(2,_4),1_ >= 0
Q_Hib,Serum_Institute,(2,_4),2_ >= 0
Q_Hib,Serum_Institute,(2,_4),3_ >= 0
Q_Hib,Serum_Institute,(2,_5),1_ >= 0
Q_Hib,Serum_Institute,(2,_5),2_ >= 0
Q_Hib,Serum_Institute,(2,_5),3_ >= 0
Q_Hib,Serum_Institute,(2,_6),1_ >= 0
Q_Hib,Serum_Institute,(2,_6),2_ >= 0
Q_Hib,Serum_Institute,(2,_6),3_ >= 0
Q_Hib,Serum_Institute,(3,_3),1_ >= 0
Q_Hib,Serum_Institute,(3,_3),2_ >= 0
Q_Hib,Serum_Institute,(3,_3),3_ >= 0
Q_Hib,Serum_Institute,(3,_4),1_ >= 0
Q_Hib,Serum_Institute,(3,_4),2_ >= 0
Q_Hib,Serum_Institute,(3,_4),3_ >= 0
Q_Hib,Serum_Institute,(3,_5),1_ >= 0
Q_Hib,Serum_Institute,(3,_5),2_ >= 0
Q_Hib,Serum_Institute,(3,_5),3_ >= 0
Q_Hib,Serum_Institute,(3,_6),1_ >= 0
Q_Hib,Serum_Institute,(3,_6),2_ >= 0
Q_Hib,Serum_Institute,(3,_6),3_ >= 0
Q_Hib,Serum_Institute,(3,_7),1_ >= 0
Q_Hib,Serum_Institute,(3,_7),2_ >= 0
Q_Hib,Serum_Institute,(3,_7),3_ >= 0
Q_Hib,Serum_Institute,(4,_4),1_ >= 0
Q_Hib,Serum_Institute,(4,_4),2_ >= 0
Q_Hib,Serum_Institute,(4,_4),3_ >= 0
Q_Hib,Serum_Institute,(4,_5),1_ >= 0
Q_Hib,Serum_Institute,(4,_5),2_ >= 0
Q_Hib,Serum_Institute,(4,_5),3_ >= 0
Q_Hib,Serum_Institute,(4,_6),1_ >= 0
Q_Hib,Serum_Institute,(4,_6),2_ >= 0
Q_Hib,Serum_Institute,(4,_6),3_ >= 0
Q_Hib,Serum_Institute,(4,_7),1_ >= 0
Q_Hib,Serum_Institute,(4,_7),2_ >= 0
Q_Hib,Serum_Institute,(4,_7),3_ >= 0
Q_Hib,Serum_Institute,(4,_8),1_ >= 0
Q_Hib,Serum_Institute,(4,_8),2_ >= 0
Q_Hib,Serum_Institute,(4,_8),3_ >= 0
Q_Hib,Serum_Institute,(5,_5),1_ >= 0
Q_Hib,Serum_Institute,(5,_5),2_ >= 0
Q_Hib,Serum_Institute,(5,_5),3_ >= 0
Q_Hib,Serum_Institute,(5,_6),1_ >= 0
Q_Hib,Serum_Institute,(5,_6),2_ >= 0
Q_Hib,Serum_Institute,(5,_6),3_ >= 0
Q_Hib,Serum_Institute,(5,_7),1_ >= 0
Q_Hib,Serum_Institute,(5,_7),2_ >= 0
Q_Hib,Serum_Institute,(5,_7),3_ >= 0
Q_Hib,Serum_Institute,(5,_8),1_ >= 0
Q_Hib,Serum_Institute,(5,_8),2_ >= 0
Q_Hib,Serum_Institute,(5,_8),3_ >= 0
Q_Hib,Serum_Institute,(5,_9),1_ >= 0
Q_Hib,Serum_Institute,(5,_9),2_ >= 0
Q_Hib,Serum_Institute,(5,_9),3_ >= 0
Q_Hib,Serum_Institute,(6,_6),1_ >= 0
Q_Hib,Serum_Institute,(6,_6),2_ >= 0
Q_Hib,Serum_Institute,(6,_6),3_ >= 0
Q_Hib,Serum_Institute,(6,_7),1_ >= 0
Q_Hib,Serum_Institute,(6,_7),2_ >= 0
Q_Hib,Serum_Institute,(6,_7),3_ >= 0
Q_Hib,Serum_Institute,(6,_8),1_ >= 0
Q_Hib,Serum_Institute,(6,_8),2_ >= 0
Q_Hib,Serum_Institute,(6,_8),3_ >= 0
Q_Hib,Serum_Institute,(6,_9),1_ >= 0
Q_Hib,Serum_Institute,(6,_9),2_ >= 0
Q_Hib,Serum_Institute,(6,_9),3_ >= 0
Q_Hib,Serum_Institute,(6,_10),1_ >= 0
Q_Hib,Serum_Institute,(6,_10),2_ >= 0
Q_Hib,Serum_Institute,(6,_10),3_ >= 0
Q_Hib,Serum_Institute,(7,_7),1_ >= 0
Q_Hib,Serum_Institute,(7,_7),2_ >= 0
Q_Hib,Serum_Institute,(7,_7),3_ >= 0
Q_Hib,Serum_Institute,(7,_8),1_ >= 0
Q_Hib,Serum_Institute,(7,_8),2_ >= 0
Q_Hib,Serum_Institute,(7,_8),3_ >= 0
Q_Hib,Serum_Institute,(7,_9),1_ >= 0
Q_Hib,Serum_Institute,(7,_9),2_ >= 0
Q_Hib,Serum_Institute,(7,_9),3_ >= 0
Q_Hib,Serum_Institute,(7,_10),1_ >= 0
Q_Hib,Serum_Institute,(7,_10),2_ >= 0
Q_Hib,Serum_Institute,(7,_10),3_ >= 0
Q_Hib,Serum_Institute,(8,_8),1_ >= 0
Q_Hib,Serum_Institute,(8,_8),2_ >= 0
Q_Hib,Serum_Institute,(8,_8),3_ >= 0
Q_Hib,Serum_Institute,(8,_9),1_ >= 0
Q_Hib,Serum_Institute,(8,_9),2_ >= 0
Q_Hib,Serum_Institute,(8,_9),3_ >= 0
Q_Hib,Serum_Institute,(8,_10),1_ >= 0
Q_Hib,Serum_Institute,(8,_10),2_ >= 0
Q_Hib,Serum_Institute,(8,_10),3_ >= 0
Q_Hib,Serum_Institute,(9,_9),1_ >= 0
Q_Hib,Serum_Institute,(9,_9),2_ >= 0
Q_Hib,Serum_Institute,(9,_9),3_ >= 0
Q_Hib,Serum_Institute,(9,_10),1_ >= 0
Q_Hib,Serum_Institute,(9,_10),2_ >= 0
Q_Hib,Serum_Institute,(9,_10),3_ >= 0
Q_Hib,Serum_Institute,(10,_10),1_ >= 0
Q_Hib,Serum_Institute,(10,_10),2_ >= 0
Q_Hib,Serum_Institute,(10,_10),3_ >= 0
Q_IPV,LG_Chem,(1,_1),1_ >= 0
Q_IPV,LG_Chem,(1,_1),2_ >= 0
Q_IPV,LG_Chem,(1,_1),3_ >= 0
Q_IPV,LG_Chem,(1,_2),1_ >= 0
Q_IPV,LG_Chem,(1,_2),2_ >= 0
Q_IPV,LG_Chem,(1,_2),3_ >= 0
Q_IPV,LG_Chem,(1,_3),1_ >= 0
Q_IPV,LG_Chem,(1,_3),2_ >= 0
Q_IPV,LG_Chem,(1,_3),3_ >= 0
Q_IPV,LG_Chem,(1,_4),1_ >= 0
Q_IPV,LG_Chem,(1,_4),2_ >= 0
Q_IPV,LG_Chem,(1,_4),3_ >= 0
Q_IPV,LG_Chem,(1,_5),1_ >= 0
Q_IPV,LG_Chem,(1,_5),2_ >= 0
Q_IPV,LG_Chem,(1,_5),3_ >= 0
Q_IPV,LG_Chem,(2,_2),1_ >= 0
Q_IPV,LG_Chem,(2,_2),2_ >= 0
Q_IPV,LG_Chem,(2,_2),3_ >= 0
Q_IPV,LG_Chem,(2,_3),1_ >= 0
Q_IPV,LG_Chem,(2,_3),2_ >= 0
Q_IPV,LG_Chem,(2,_3),3_ >= 0
Q_IPV,LG_Chem,(2,_4),1_ >= 0
Q_IPV,LG_Chem,(2,_4),2_ >= 0
Q_IPV,LG_Chem,(2,_4),3_ >= 0
Q_IPV,LG_Chem,(2,_5),1_ >= 0
Q_IPV,LG_Chem,(2,_5),2_ >= 0
Q_IPV,LG_Chem,(2,_5),3_ >= 0
Q_IPV,LG_Chem,(2,_6),1_ >= 0
Q_IPV,LG_Chem,(2,_6),2_ >= 0
Q_IPV,LG_Chem,(2,_6),3_ >= 0
Q_IPV,LG_Chem,(3,_3),1_ >= 0
Q_IPV,LG_Chem,(3,_3),2_ >= 0
Q_IPV,LG_Chem,(3,_3),3_ >= 0
Q_IPV,LG_Chem,(3,_4),1_ >= 0
Q_IPV,LG_Chem,(3,_4),2_ >= 0
Q_IPV,LG_Chem,(3,_4),3_ >= 0
Q_IPV,LG_Chem,(3,_5),1_ >= 0
Q_IPV,LG_Chem,(3,_5),2_ >= 0
Q_IPV,LG_Chem,(3,_5),3_ >= 0
Q_IPV,LG_Chem,(3,_6),1_ >= 0
Q_IPV,LG_Chem,(3,_6),2_ >= 0
Q_IPV,LG_Chem,(3,_6),3_ >= 0
Q_IPV,LG_Chem,(3,_7),1_ >= 0
Q_IPV,LG_Chem,(3,_7),2_ >= 0
Q_IPV,LG_Chem,(3,_7),3_ >= 0
Q_IPV,LG_Chem,(4,_4),1_ >= 0
Q_IPV,LG_Chem,(4,_4),2_ >= 0
Q_IPV,LG_Chem,(4,_4),3_ >= 0
Q_IPV,LG_Chem,(4,_5),1_ >= 0
Q_IPV,LG_Chem,(4,_5),2_ >= 0
Q_IPV,LG_Chem,(4,_5),3_ >= 0
Q_IPV,LG_Chem,(4,_6),1_ >= 0
Q_IPV,LG_Chem,(4,_6),2_ >= 0
Q_IPV,LG_Chem,(4,_6),3_ >= 0
Q_IPV,LG_Chem,(4,_7),1_ >= 0
Q_IPV,LG_Chem,(4,_7),2_ >= 0
Q_IPV,LG_Chem,(4,_7),3_ >= 0
Q_IPV,LG_Chem,(4,_8),1_ >= 0
Q_IPV,LG_Chem,(4,_8),2_ >= 0
Q_IPV,LG_Chem,(4,_8),3_ >= 0
Q_IPV,LG_Chem,(5,_5),1_ >= 0
Q_IPV,LG_Chem,(5,_5),2_ >= 0
Q_IPV,LG_Chem,(5,_5),3_ >= 0
Q_IPV,LG_Chem,(5,_6),1_ >= 0
Q_IPV,LG_Chem,(5,_6),2_ >= 0
Q_IPV,LG_Chem,(5,_6),3_ >= 0
Q_IPV,LG_Chem,(5,_7),1_ >= 0
Q_IPV,LG_Chem,(5,_7),2_ >= 0
Q_IPV,LG_Chem,(5,_7),3_ >= 0
Q_IPV,LG_Chem,(5,_8),1_ >= 0
Q_IPV,LG_Chem,(5,_8),2_ >= 0
Q_IPV,LG_Chem,(5,_8),3_ >= 0
Q_IPV,LG_Chem,(5,_9),1_ >= 0
Q_IPV,LG_Chem,(5,_9),2_ >= 0
Q_IPV,LG_Chem,(5,_9),3_ >= 0
Q_IPV,LG_Chem,(6,_6),1_ >= 0
Q_IPV,LG_Chem,(6,_6),2_ >= 0
Q_IPV,LG_Chem,(6,_6),3_ >= 0
Q_IPV,LG_Chem,(6,_7),1_ >= 0
Q_IPV,LG_Chem,(6,_7),2_ >= 0
Q_IPV,LG_Chem,(6,_7),3_ >= 0
Q_IPV,LG_Chem,(6,_8),1_ >= 0
Q_IPV,LG_Chem,(6,_8),2_ >= 0
Q_IPV,LG_Chem,(6,_8),3_ >= 0
Q_IPV,LG_Chem,(6,_9),1_ >= 0
Q_IPV,LG_Chem,(6,_9),2_ >= 0
Q_IPV,LG_Chem,(6,_9),3_ >= 0
Q_IPV,LG_Chem,(6,_10),1_ >= 0
Q_IPV,LG_Chem,(6,_10),2_ >= 0
Q_IPV,LG_Chem,(6,_10),3_ >= 0
Q_IPV,LG_Chem,(7,_7),1_ >= 0
Q_IPV,LG_Chem,(7,_7),2_ >= 0
Q_IPV,LG_Chem,(7,_7),3_ >= 0
Q_IPV,LG_Chem,(7,_8),1_ >= 0
Q_IPV,LG_Chem,(7,_8),2_ >= 0
Q_IPV,LG_Chem,(7,_8),3_ >= 0
Q_IPV,LG_Chem,(7,_9),1_ >= 0
Q_IPV,LG_Chem,(7,_9),2_ >= 0
Q_IPV,LG_Chem,(7,_9),3_ >= 0
Q_IPV,LG_Chem,(7,_10),1_ >= 0
Q_IPV,LG_Chem,(7,_10),2_ >= 0
Q_IPV,LG_Chem,(7,_10),3_ >= 0
Q_IPV,LG_Chem,(8,_8),1_ >= 0
Q_IPV,LG_Chem,(8,_8),2_ >= 0
Q_IPV,LG_Chem,(8,_8),3_ >= 0
Q_IPV,LG_Chem,(8,_9),1_ >= 0
Q_IPV,LG_Chem,(8,_9),2_ >= 0
Q_IPV,LG_Chem,(8,_9),3_ >= 0
Q_IPV,LG_Chem,(8,_10),1_ >= 0
Q_IPV,LG_Chem,(8,_10),2_ >= 0
Q_IPV,LG_Chem,(8,_10),3_ >= 0
Q_IPV,LG_Chem,(9,_9),1_ >= 0
Q_IPV,LG_Chem,(9,_9),2_ >= 0
Q_IPV,LG_Chem,(9,_9),3_ >= 0
Q_IPV,LG_Chem,(9,_10),1_ >= 0
Q_IPV,LG_Chem,(9,_10),2_ >= 0
Q_IPV,LG_Chem,(9,_10),3_ >= 0
Q_IPV,LG_Chem,(10,_10),1_ >= 0
Q_IPV,LG_Chem,(10,_10),2_ >= 0
Q_IPV,LG_Chem,(10,_10),3_ >= 0
Q_IPV,AJ_Vaccines,(1,_1),1_ >= 0
Q_IPV,AJ_Vaccines,(1,_1),2_ >= 0
Q_IPV,AJ_Vaccines,(1,_1),3_ >= 0
Q_IPV,AJ_Vaccines,(1,_2),1_ >= 0
Q_IPV,AJ_Vaccines,(1,_2),2_ >= 0
Q_IPV,AJ_Vaccines,(1,_2),3_ >= 0
Q_IPV,AJ_Vaccines,(1,_3),1_ >= 0
Q_IPV,AJ_Vaccines,(1,_3),2_ >= 0
Q_IPV,AJ_Vaccines,(1,_3),3_ >= 0
Q_IPV,AJ_Vaccines,(1,_4),1_ >= 0
Q_IPV,AJ_Vaccines,(1,_4),2_ >= 0
Q_IPV,AJ_Vaccines,(1,_4),3_ >= 0
Q_IPV,AJ_Vaccines,(1,_5),1_ >= 0
Q_IPV,AJ_Vaccines,(1,_5),2_ >= 0
Q_IPV,AJ_Vaccines,(1,_5),3_ >= 0
Q_IPV,AJ_Vaccines,(2,_2),1_ >= 0
Q_IPV,AJ_Vaccines,(2,_2),2_ >= 0
Q_IPV,AJ_Vaccines,(2,_2),3_ >= 0
Q_IPV,AJ_Vaccines,(2,_3),1_ >= 0
Q_IPV,AJ_Vaccines,(2,_3),2_ >= 0
Q_IPV,AJ_Vaccines,(2,_3),3_ >= 0
Q_IPV,AJ_Vaccines,(2,_4),1_ >= 0
Q_IPV,AJ_Vaccines,(2,_4),2_ >= 0
Q_IPV,AJ_Vaccines,(2,_4),3_ >= 0
Q_IPV,AJ_Vaccines,(2,_5),1_ >= 0
Q_IPV,AJ_Vaccines,(2,_5),2_ >= 0
Q_IPV,AJ_Vaccines,(2,_5),3_ >= 0
Q_IPV,AJ_Vaccines,(2,_6),1_ >= 0
Q_IPV,AJ_Vaccines,(2,_6),2_ >= 0
Q_IPV,AJ_Vaccines,(2,_6),3_ >= 0
Q_IPV,AJ_Vaccines,(3,_3),1_ >= 0
Q_IPV,AJ_Vaccines,(3,_3),2_ >= 0
Q_IPV,AJ_Vaccines,(3,_3),3_ >= 0
Q_IPV,AJ_Vaccines,(3,_4),1_ >= 0
Q_IPV,AJ_Vaccines,(3,_4),2_ >= 0
Q_IPV,AJ_Vaccines,(3,_4),3_ >= 0
Q_IPV,AJ_Vaccines,(3,_5),1_ >= 0
Q_IPV,AJ_Vaccines,(3,_5),2_ >= 0
Q_IPV,AJ_Vaccines,(3,_5),3_ >= 0
Q_IPV,AJ_Vaccines,(3,_6),1_ >= 0
Q_IPV,AJ_Vaccines,(3,_6),2_ >= 0
Q_IPV,AJ_Vaccines,(3,_6),3_ >= 0
Q_IPV,AJ_Vaccines,(3,_7),1_ >= 0
Q_IPV,AJ_Vaccines,(3,_7),2_ >= 0
Q_IPV,AJ_Vaccines,(3,_7),3_ >= 0
Q_IPV,AJ_Vaccines,(4,_4),1_ >= 0
Q_IPV,AJ_Vaccines,(4,_4),2_ >= 0
Q_IPV,AJ_Vaccines,(4,_4),3_ >= 0
Q_IPV,AJ_Vaccines,(4,_5),1_ >= 0
Q_IPV,AJ_Vaccines,(4,_5),2_ >= 0
Q_IPV,AJ_Vaccines,(4,_5),3_ >= 0
Q_IPV,AJ_Vaccines,(4,_6),1_ >= 0
Q_IPV,AJ_Vaccines,(4,_6),2_ >= 0
Q_IPV,AJ_Vaccines,(4,_6),3_ >= 0
Q_IPV,AJ_Vaccines,(4,_7),1_ >= 0
Q_IPV,AJ_Vaccines,(4,_7),2_ >= 0
Q_IPV,AJ_Vaccines,(4,_7),3_ >= 0
Q_IPV,AJ_Vaccines,(4,_8),1_ >= 0
Q_IPV,AJ_Vaccines,(4,_8),2_ >= 0
Q_IPV,AJ_Vaccines,(4,_8),3_ >= 0
Q_IPV,AJ_Vaccines,(5,_5),1_ >= 0
Q_IPV,AJ_Vaccines,(5,_5),2_ >= 0
Q_IPV,AJ_Vaccines,(5,_5),3_ >= 0
Q_IPV,AJ_Vaccines,(5,_6),1_ >= 0
Q_IPV,AJ_Vaccines,(5,_6),2_ >= 0
Q_IPV,AJ_Vaccines,(5,_6),3_ >= 0
Q_IPV,AJ_Vaccines,(5,_7),1_ >= 0
Q_IPV,AJ_Vaccines,(5,_7),2_ >= 0
Q_IPV,AJ_Vaccines,(5,_7),3_ >= 0
Q_IPV,AJ_Vaccines,(5,_8),1_ >= 0
Q_IPV,AJ_Vaccines,(5,_8),2_ >= 0
Q_IPV,AJ_Vaccines,(5,_8),3_ >= 0
Q_IPV,AJ_Vaccines,(5,_9),1_ >= 0
Q_IPV,AJ_Vaccines,(5,_9),2_ >= 0
Q_IPV,AJ_Vaccines,(5,_9),3_ >= 0
Q_IPV,AJ_Vaccines,(6,_6),1_ >= 0
Q_IPV,AJ_Vaccines,(6,_6),2_ >= 0
Q_IPV,AJ_Vaccines,(6,_6),3_ >= 0
Q_IPV,AJ_Vaccines,(6,_7),1_ >= 0
Q_IPV,AJ_Vaccines,(6,_7),2_ >= 0
Q_IPV,AJ_Vaccines,(6,_7),3_ >= 0
Q_IPV,AJ_Vaccines,(6,_8),1_ >= 0
Q_IPV,AJ_Vaccines,(6,_8),2_ >= 0
Q_IPV,AJ_Vaccines,(6,_8),3_ >= 0
Q_IPV,AJ_Vaccines,(6,_9),1_ >= 0
Q_IPV,AJ_Vaccines,(6,_9),2_ >= 0
Q_IPV,AJ_Vaccines,(6,_9),3_ >= 0
Q_IPV,AJ_Vaccines,(6,_10),1_ >= 0
Q_IPV,AJ_Vaccines,(6,_10),2_ >= 0
Q_IPV,AJ_Vaccines,(6,_10),3_ >= 0
Q_IPV,AJ_Vaccines,(7,_7),1_ >= 0
Q_IPV,AJ_Vaccines,(7,_7),2_ >= 0
Q_IPV,AJ_Vaccines,(7,_7),3_ >= 0
Q_IPV,AJ_Vaccines,(7,_8),1_ >= 0
Q_IPV,AJ_Vaccines,(7,_8),2_ >= 0
Q_IPV,AJ_Vaccines,(7,_8),3_ >= 0
Q_IPV,AJ_Vaccines,(7,_9),1_ >= 0
Q_IPV,AJ_Vaccines,(7,_9),2_ >= 0
Q_IPV,AJ_Vaccines,(7,_9),3_ >= 0
Q_IPV,AJ_Vaccines,(7,_10),1_ >= 0
Q_IPV,AJ_Vaccines,(7,_10),2_ >= 0
Q_IPV,AJ_Vaccines,(7,_10),3_ >= 0
Q_IPV,AJ_Vaccines,(8,_8),1_ >= 0
Q_IPV,AJ_Vaccines,(8,_8),2_ >= 0
Q_IPV,AJ_Vaccines,(8,_8),3_ >= 0
Q_IPV,AJ_Vaccines,(8,_9),1_ >= 0
Q_IPV,AJ_Vaccines,(8,_9),2_ >= 0
Q_IPV,AJ_Vaccines,(8,_9),3_ >= 0
Q_IPV,AJ_Vaccines,(8,_10),1_ >= 0
Q_IPV,AJ_Vaccines,(8,_10),2_ >= 0
Q_IPV,AJ_Vaccines,(8,_10),3_ >= 0
Q_IPV,AJ_Vaccines,(9,_9),1_ >= 0
Q_IPV,AJ_Vaccines,(9,_9),2_ >= 0
Q_IPV,AJ_Vaccines,(9,_9),3_ >= 0
Q_IPV,AJ_Vaccines,(9,_10),1_ >= 0
Q_IPV,AJ_Vaccines,(9,_10),2_ >= 0
Q_IPV,AJ_Vaccines,(9,_10),3_ >= 0
Q_IPV,AJ_Vaccines,(10,_10),1_ >= 0
Q_IPV,AJ_Vaccines,(10,_10),2_ >= 0
Q_IPV,AJ_Vaccines,(10,_10),3_ >= 0
Q_IPV,Bilthoven,(1,_1),1_ >= 0
Q_IPV,Bilthoven,(1,_1),2_ >= 0
Q_IPV,Bilthoven,(1,_1),3_ >= 0
Q_IPV,Bilthoven,(1,_2),1_ >= 0
Q_IPV,Bilthoven,(1,_2),2_ >= 0
Q_IPV,Bilthoven,(1,_2),3_ >= 0
Q_IPV,Bilthoven,(1,_3),1_ >= 0
Q_IPV,Bilthoven,(1,_3),2_ >= 0
Q_IPV,Bilthoven,(1,_3),3_ >= 0
Q_IPV,Bilthoven,(1,_4),1_ >= 0
Q_IPV,Bilthoven,(1,_4),2_ >= 0
Q_IPV,Bilthoven,(1,_4),3_ >= 0
Q_IPV,Bilthoven,(1,_5),1_ >= 0
Q_IPV,Bilthoven,(1,_5),2_ >= 0
Q_IPV,Bilthoven,(1,_5),3_ >= 0
Q_IPV,Bilthoven,(2,_2),1_ >= 0
Q_IPV,Bilthoven,(2,_2),2_ >= 0
Q_IPV,Bilthoven,(2,_2),3_ >= 0
Q_IPV,Bilthoven,(2,_3),1_ >= 0
Q_IPV,Bilthoven,(2,_3),2_ >= 0
Q_IPV,Bilthoven,(2,_3),3_ >= 0
Q_IPV,Bilthoven,(2,_4),1_ >= 0
Q_IPV,Bilthoven,(2,_4),2_ >= 0
Q_IPV,Bilthoven,(2,_4),3_ >= 0
Q_IPV,Bilthoven,(2,_5),1_ >= 0
Q_IPV,Bilthoven,(2,_5),2_ >= 0
Q_IPV,Bilthoven,(2,_5),3_ >= 0
Q_IPV,Bilthoven,(2,_6),1_ >= 0
Q_IPV,Bilthoven,(2,_6),2_ >= 0
Q_IPV,Bilthoven,(2,_6),3_ >= 0
Q_IPV,Bilthoven,(3,_3),1_ >= 0
Q_IPV,Bilthoven,(3,_3),2_ >= 0
Q_IPV,Bilthoven,(3,_3),3_ >= 0
Q_IPV,Bilthoven,(3,_4),1_ >= 0
Q_IPV,Bilthoven,(3,_4),2_ >= 0
Q_IPV,Bilthoven,(3,_4),3_ >= 0
Q_IPV,Bilthoven,(3,_5),1_ >= 0
Q_IPV,Bilthoven,(3,_5),2_ >= 0
Q_IPV,Bilthoven,(3,_5),3_ >= 0
Q_IPV,Bilthoven,(3,_6),1_ >= 0
Q_IPV,Bilthoven,(3,_6),2_ >= 0
Q_IPV,Bilthoven,(3,_6),3_ >= 0
Q_IPV,Bilthoven,(3,_7),1_ >= 0
Q_IPV,Bilthoven,(3,_7),2_ >= 0
Q_IPV,Bilthoven,(3,_7),3_ >= 0
Q_IPV,Bilthoven,(4,_4),1_ >= 0
Q_IPV,Bilthoven,(4,_4),2_ >= 0
Q_IPV,Bilthoven,(4,_4),3_ >= 0
Q_IPV,Bilthoven,(4,_5),1_ >= 0
Q_IPV,Bilthoven,(4,_5),2_ >= 0
Q_IPV,Bilthoven,(4,_5),3_ >= 0
Q_IPV,Bilthoven,(4,_6),1_ >= 0
Q_IPV,Bilthoven,(4,_6),2_ >= 0
Q_IPV,Bilthoven,(4,_6),3_ >= 0
Q_IPV,Bilthoven,(4,_7),1_ >= 0
Q_IPV,Bilthoven,(4,_7),2_ >= 0
Q_IPV,Bilthoven,(4,_7),3_ >= 0
Q_IPV,Bilthoven,(4,_8),1_ >= 0
Q_IPV,Bilthoven,(4,_8),2_ >= 0
Q_IPV,Bilthoven,(4,_8),3_ >= 0
Q_IPV,Bilthoven,(5,_5),1_ >= 0
Q_IPV,Bilthoven,(5,_5),2_ >= 0
Q_IPV,Bilthoven,(5,_5),3_ >= 0
Q_IPV,Bilthoven,(5,_6),1_ >= 0
Q_IPV,Bilthoven,(5,_6),2_ >= 0
Q_IPV,Bilthoven,(5,_6),3_ >= 0
Q_IPV,Bilthoven,(5,_7),1_ >= 0
Q_IPV,Bilthoven,(5,_7),2_ >= 0
Q_IPV,Bilthoven,(5,_7),3_ >= 0
Q_IPV,Bilthoven,(5,_8),1_ >= 0
Q_IPV,Bilthoven,(5,_8),2_ >= 0
Q_IPV,Bilthoven,(5,_8),3_ >= 0
Q_IPV,Bilthoven,(5,_9),1_ >= 0
Q_IPV,Bilthoven,(5,_9),2_ >= 0
Q_IPV,Bilthoven,(5,_9),3_ >= 0
Q_IPV,Bilthoven,(6,_6),1_ >= 0
Q_IPV,Bilthoven,(6,_6),2_ >= 0
Q_IPV,Bilthoven,(6,_6),3_ >= 0
Q_IPV,Bilthoven,(6,_7),1_ >= 0
Q_IPV,Bilthoven,(6,_7),2_ >= 0
Q_IPV,Bilthoven,(6,_7),3_ >= 0
Q_IPV,Bilthoven,(6,_8),1_ >= 0
Q_IPV,Bilthoven,(6,_8),2_ >= 0
Q_IPV,Bilthoven,(6,_8),3_ >= 0
Q_IPV,Bilthoven,(6,_9),1_ >= 0
Q_IPV,Bilthoven,(6,_9),2_ >= 0
Q_IPV,Bilthoven,(6,_9),3_ >= 0
Q_IPV,Bilthoven,(6,_10),1_ >= 0
Q_IPV,Bilthoven,(6,_10),2_ >= 0
Q_IPV,Bilthoven,(6,_10),3_ >= 0
Q_IPV,Bilthoven,(7,_7),1_ >= 0
Q_IPV,Bilthoven,(7,_7),2_ >= 0
Q_IPV,Bilthoven,(7,_7),3_ >= 0
Q_IPV,Bilthoven,(7,_8),1_ >= 0
Q_IPV,Bilthoven,(7,_8),2_ >= 0
Q_IPV,Bilthoven,(7,_8),3_ >= 0
Q_IPV,Bilthoven,(7,_9),1_ >= 0
Q_IPV,Bilthoven,(7,_9),2_ >= 0
Q_IPV,Bilthoven,(7,_9),3_ >= 0
Q_IPV,Bilthoven,(7,_10),1_ >= 0
Q_IPV,Bilthoven,(7,_10),2_ >= 0
Q_IPV,Bilthoven,(7,_10),3_ >= 0
Q_IPV,Bilthoven,(8,_8),1_ >= 0
Q_IPV,Bilthoven,(8,_8),2_ >= 0
Q_IPV,Bilthoven,(8,_8),3_ >= 0
Q_IPV,Bilthoven,(8,_9),1_ >= 0
Q_IPV,Bilthoven,(8,_9),2_ >= 0
Q_IPV,Bilthoven,(8,_9),3_ >= 0
Q_IPV,Bilthoven,(8,_10),1_ >= 0
Q_IPV,Bilthoven,(8,_10),2_ >= 0
Q_IPV,Bilthoven,(8,_10),3_ >= 0
Q_IPV,Bilthoven,(9,_9),1_ >= 0
Q_IPV,Bilthoven,(9,_9),2_ >= 0
Q_IPV,Bilthoven,(9,_9),3_ >= 0
Q_IPV,Bilthoven,(9,_10),1_ >= 0
Q_IPV,Bilthoven,(9,_10),2_ >= 0
Q_IPV,Bilthoven,(9,_10),3_ >= 0
Q_IPV,Bilthoven,(10,_10),1_ >= 0
Q_IPV,Bilthoven,(10,_10),2_ >= 0
Q_IPV,Bilthoven,(10,_10),3_ >= 0
Q_IPV,Sanofi,(1,_1),1_ >= 0
Q_IPV,Sanofi,(1,_1),2_ >= 0
Q_IPV,Sanofi,(1,_1),3_ >= 0
Q_IPV,Sanofi,(1,_2),1_ >= 0
Q_IPV,Sanofi,(1,_2),2_ >= 0
Q_IPV,Sanofi,(1,_2),3_ >= 0
Q_IPV,Sanofi,(1,_3),1_ >= 0
Q_IPV,Sanofi,(1,_3),2_ >= 0
Q_IPV,Sanofi,(1,_3),3_ >= 0
Q_IPV,Sanofi,(1,_4),1_ >= 0
Q_IPV,Sanofi,(1,_4),2_ >= 0
Q_IPV,Sanofi,(1,_4),3_ >= 0
Q_IPV,Sanofi,(1,_5),1_ >= 0
Q_IPV,Sanofi,(1,_5),2_ >= 0
Q_IPV,Sanofi,(1,_5),3_ >= 0
Q_IPV,Sanofi,(2,_2),1_ >= 0
Q_IPV,Sanofi,(2,_2),2_ >= 0
Q_IPV,Sanofi,(2,_2),3_ >= 0
Q_IPV,Sanofi,(2,_3),1_ >= 0
Q_IPV,Sanofi,(2,_3),2_ >= 0
Q_IPV,Sanofi,(2,_3),3_ >= 0
Q_IPV,Sanofi,(2,_4),1_ >= 0
Q_IPV,Sanofi,(2,_4),2_ >= 0
Q_IPV,Sanofi,(2,_4),3_ >= 0
Q_IPV,Sanofi,(2,_5),1_ >= 0
Q_IPV,Sanofi,(2,_5),2_ >= 0
Q_IPV,Sanofi,(2,_5),3_ >= 0
Q_IPV,Sanofi,(2,_6),1_ >= 0
Q_IPV,Sanofi,(2,_6),2_ >= 0
Q_IPV,Sanofi,(2,_6),3_ >= 0
Q_IPV,Sanofi,(3,_3),1_ >= 0
Q_IPV,Sanofi,(3,_3),2_ >= 0
Q_IPV,Sanofi,(3,_3),3_ >= 0
Q_IPV,Sanofi,(3,_4),1_ >= 0
Q_IPV,Sanofi,(3,_4),2_ >= 0
Q_IPV,Sanofi,(3,_4),3_ >= 0
Q_IPV,Sanofi,(3,_5),1_ >= 0
Q_IPV,Sanofi,(3,_5),2_ >= 0
Q_IPV,Sanofi,(3,_5),3_ >= 0
Q_IPV,Sanofi,(3,_6),1_ >= 0
Q_IPV,Sanofi,(3,_6),2_ >= 0
Q_IPV,Sanofi,(3,_6),3_ >= 0
Q_IPV,Sanofi,(3,_7),1_ >= 0
Q_IPV,Sanofi,(3,_7),2_ >= 0
Q_IPV,Sanofi,(3,_7),3_ >= 0
Q_IPV,Sanofi,(4,_4),1_ >= 0
Q_IPV,Sanofi,(4,_4),2_ >= 0
Q_IPV,Sanofi,(4,_4),3_ >= 0
Q_IPV,Sanofi,(4,_5),1_ >= 0
Q_IPV,Sanofi,(4,_5),2_ >= 0
Q_IPV,Sanofi,(4,_5),3_ >= 0
Q_IPV,Sanofi,(4,_6),1_ >= 0
Q_IPV,Sanofi,(4,_6),2_ >= 0
Q_IPV,Sanofi,(4,_6),3_ >= 0
Q_IPV,Sanofi,(4,_7),1_ >= 0
Q_IPV,Sanofi,(4,_7),2_ >= 0
Q_IPV,Sanofi,(4,_7),3_ >= 0
Q_IPV,Sanofi,(4,_8),1_ >= 0
Q_IPV,Sanofi,(4,_8),2_ >= 0
Q_IPV,Sanofi,(4,_8),3_ >= 0
Q_IPV,Sanofi,(5,_5),1_ >= 0
Q_IPV,Sanofi,(5,_5),2_ >= 0
Q_IPV,Sanofi,(5,_5),3_ >= 0
Q_IPV,Sanofi,(5,_6),1_ >= 0
Q_IPV,Sanofi,(5,_6),2_ >= 0
Q_IPV,Sanofi,(5,_6),3_ >= 0
Q_IPV,Sanofi,(5,_7),1_ >= 0
Q_IPV,Sanofi,(5,_7),2_ >= 0
Q_IPV,Sanofi,(5,_7),3_ >= 0
Q_IPV,Sanofi,(5,_8),1_ >= 0
Q_IPV,Sanofi,(5,_8),2_ >= 0
Q_IPV,Sanofi,(5,_8),3_ >= 0
Q_IPV,Sanofi,(5,_9),1_ >= 0
Q_IPV,Sanofi,(5,_9),2_ >= 0
Q_IPV,Sanofi,(5,_9),3_ >= 0
Q_IPV,Sanofi,(6,_6),1_ >= 0
Q_IPV,Sanofi,(6,_6),2_ >= 0
Q_IPV,Sanofi,(6,_6),3_ >= 0
Q_IPV,Sanofi,(6,_7),1_ >= 0
Q_IPV,Sanofi,(6,_7),2_ >= 0
Q_IPV,Sanofi,(6,_7),3_ >= 0
Q_IPV,Sanofi,(6,_8),1_ >= 0
Q_IPV,Sanofi,(6,_8),2_ >= 0
Q_IPV,Sanofi,(6,_8),3_ >= 0
Q_IPV,Sanofi,(6,_9),1_ >= 0
Q_IPV,Sanofi,(6,_9),2_ >= 0
Q_IPV,Sanofi,(6,_9),3_ >= 0
Q_IPV,Sanofi,(6,_10),1_ >= 0
Q_IPV,Sanofi,(6,_10),2_ >= 0
Q_IPV,Sanofi,(6,_10),3_ >= 0
Q_IPV,Sanofi,(7,_7),1_ >= 0
Q_IPV,Sanofi,(7,_7),2_ >= 0
Q_IPV,Sanofi,(7,_7),3_ >= 0
Q_IPV,Sanofi,(7,_8),1_ >= 0
Q_IPV,Sanofi,(7,_8),2_ >= 0
Q_IPV,Sanofi,(7,_8),3_ >= 0
Q_IPV,Sanofi,(7,_9),1_ >= 0
Q_IPV,Sanofi,(7,_9),2_ >= 0
Q_IPV,Sanofi,(7,_9),3_ >= 0
Q_IPV,Sanofi,(7,_10),1_ >= 0
Q_IPV,Sanofi,(7,_10),2_ >= 0
Q_IPV,Sanofi,(7,_10),3_ >= 0
Q_IPV,Sanofi,(8,_8),1_ >= 0
Q_IPV,Sanofi,(8,_8),2_ >= 0
Q_IPV,Sanofi,(8,_8),3_ >= 0
Q_IPV,Sanofi,(8,_9),1_ >= 0
Q_IPV,Sanofi,(8,_9),2_ >= 0
Q_IPV,Sanofi,(8,_9),3_ >= 0
Q_IPV,Sanofi,(8,_10),1_ >= 0
Q_IPV,Sanofi,(8,_10),2_ >= 0
Q_IPV,Sanofi,(8,_10),3_ >= 0
Q_IPV,Sanofi,(9,_9),1_ >= 0
Q_IPV,Sanofi,(9,_9),2_ >= 0
Q_IPV,Sanofi,(9,_9),3_ >= 0
Q_IPV,Sanofi,(9,_10),1_ >= 0
Q_IPV,Sanofi,(9,_10),2_ >= 0
Q_IPV,Sanofi,(9,_10),3_ >= 0
Q_IPV,Sanofi,(10,_10),1_ >= 0
Q_IPV,Sanofi,(10,_10),2_ >= 0
Q_IPV,Sanofi,(10,_10),3_ >= 0
Q_OPV,Serum_Institute,(1,_1),1_ >= 0
Q_OPV,Serum_Institute,(1,_1),2_ >= 0
Q_OPV,Serum_Institute,(1,_1),3_ >= 0
Q_OPV,Serum_Institute,(1,_2),1_ >= 0
Q_OPV,Serum_Institute,(1,_2),2_ >= 0
Q_OPV,Serum_Institute,(1,_2),3_ >= 0
Q_OPV,Serum_Institute,(1,_3),1_ >= 0
Q_OPV,Serum_Institute,(1,_3),2_ >= 0
Q_OPV,Serum_Institute,(1,_3),3_ >= 0
Q_OPV,Serum_Institute,(1,_4),1_ >= 0
Q_OPV,Serum_Institute,(1,_4),2_ >= 0
Q_OPV,Serum_Institute,(1,_4),3_ >= 0
Q_OPV,Serum_Institute,(1,_5),1_ >= 0
Q_OPV,Serum_Institute,(1,_5),2_ >= 0
Q_OPV,Serum_Institute,(1,_5),3_ >= 0
Q_OPV,Serum_Institute,(2,_2),1_ >= 0
Q_OPV,Serum_Institute,(2,_2),2_ >= 0
Q_OPV,Serum_Institute,(2,_2),3_ >= 0
Q_OPV,Serum_Institute,(2,_3),1_ >= 0
Q_OPV,Serum_Institute,(2,_3),2_ >= 0
Q_OPV,Serum_Institute,(2,_3),3_ >= 0
Q_OPV,Serum_Institute,(2,_4),1_ >= 0
Q_OPV,Serum_Institute,(2,_4),2_ >= 0
Q_OPV,Serum_Institute,(2,_4),3_ >= 0
Q_OPV,Serum_Institute,(2,_5),1_ >= 0
Q_OPV,Serum_Institute,(2,_5),2_ >= 0
Q_OPV,Serum_Institute,(2,_5),3_ >= 0
Q_OPV,Serum_Institute,(2,_6),1_ >= 0
Q_OPV,Serum_Institute,(2,_6),2_ >= 0
Q_OPV,Serum_Institute,(2,_6),3_ >= 0
Q_OPV,Serum_Institute,(3,_3),1_ >= 0
Q_OPV,Serum_Institute,(3,_3),2_ >= 0
Q_OPV,Serum_Institute,(3,_3),3_ >= 0
Q_OPV,Serum_Institute,(3,_4),1_ >= 0
Q_OPV,Serum_Institute,(3,_4),2_ >= 0
Q_OPV,Serum_Institute,(3,_4),3_ >= 0
Q_OPV,Serum_Institute,(3,_5),1_ >= 0
Q_OPV,Serum_Institute,(3,_5),2_ >= 0
Q_OPV,Serum_Institute,(3,_5),3_ >= 0
Q_OPV,Serum_Institute,(3,_6),1_ >= 0
Q_OPV,Serum_Institute,(3,_6),2_ >= 0
Q_OPV,Serum_Institute,(3,_6),3_ >= 0
Q_OPV,Serum_Institute,(3,_7),1_ >= 0
Q_OPV,Serum_Institute,(3,_7),2_ >= 0
Q_OPV,Serum_Institute,(3,_7),3_ >= 0
Q_OPV,Serum_Institute,(4,_4),1_ >= 0
Q_OPV,Serum_Institute,(4,_4),2_ >= 0
Q_OPV,Serum_Institute,(4,_4),3_ >= 0
Q_OPV,Serum_Institute,(4,_5),1_ >= 0
Q_OPV,Serum_Institute,(4,_5),2_ >= 0
Q_OPV,Serum_Institute,(4,_5),3_ >= 0
Q_OPV,Serum_Institute,(4,_6),1_ >= 0
Q_OPV,Serum_Institute,(4,_6),2_ >= 0
Q_OPV,Serum_Institute,(4,_6),3_ >= 0
Q_OPV,Serum_Institute,(4,_7),1_ >= 0
Q_OPV,Serum_Institute,(4,_7),2_ >= 0
Q_OPV,Serum_Institute,(4,_7),3_ >= 0
Q_OPV,Serum_Institute,(4,_8),1_ >= 0
Q_OPV,Serum_Institute,(4,_8),2_ >= 0
Q_OPV,Serum_Institute,(4,_8),3_ >= 0
Q_OPV,Serum_Institute,(5,_5),1_ >= 0
Q_OPV,Serum_Institute,(5,_5),2_ >= 0
Q_OPV,Serum_Institute,(5,_5),3_ >= 0
Q_OPV,Serum_Institute,(5,_6),1_ >= 0
Q_OPV,Serum_Institute,(5,_6),2_ >= 0
Q_OPV,Serum_Institute,(5,_6),3_ >= 0
Q_OPV,Serum_Institute,(5,_7),1_ >= 0
Q_OPV,Serum_Institute,(5,_7),2_ >= 0
Q_OPV,Serum_Institute,(5,_7),3_ >= 0
Q_OPV,Serum_Institute,(5,_8),1_ >= 0
Q_OPV,Serum_Institute,(5,_8),2_ >= 0
Q_OPV,Serum_Institute,(5,_8),3_ >= 0
Q_OPV,Serum_Institute,(5,_9),1_ >= 0
Q_OPV,Serum_Institute,(5,_9),2_ >= 0
Q_OPV,Serum_Institute,(5,_9),3_ >= 0
Q_OPV,Serum_Institute,(6,_6),1_ >= 0
Q_OPV,Serum_Institute,(6,_6),2_ >= 0
Q_OPV,Serum_Institute,(6,_6),3_ >= 0
Q_OPV,Serum_Institute,(6,_7),1_ >= 0
Q_OPV,Serum_Institute,(6,_7),2_ >= 0
Q_OPV,Serum_Institute,(6,_7),3_ >= 0
Q_OPV,Serum_Institute,(6,_8),1_ >= 0
Q_OPV,Serum_Institute,(6,_8),2_ >= 0
Q_OPV,Serum_Institute,(6,_8),3_ >= 0
Q_OPV,Serum_Institute,(6,_9),1_ >= 0
Q_OPV,Serum_Institute,(6,_9),2_ >= 0
Q_OPV,Serum_Institute,(6,_9),3_ >= 0
Q_OPV,Serum_Institute,(6,_10),1_ >= 0
Q_OPV,Serum_Institute,(6,_10),2_ >= 0
Q_OPV,Serum_Institute,(6,_10),3_ >= 0
Q_OPV,Serum_Institute,(7,_7),1_ >= 0
Q_OPV,Serum_Institute,(7,_7),2_ >= 0
Q_OPV,Serum_Institute,(7,_7),3_ >= 0
Q_OPV,Serum_Institute,(7,_8),1_ >= 0
Q_OPV,Serum_Institute,(7,_8),2_ >= 0
Q_OPV,Serum_Institute,(7,_8),3_ >= 0
Q_OPV,Serum_Institute,(7,_9),1_ >= 0
Q_OPV,Serum_Institute,(7,_9),2_ >= 0
Q_OPV,Serum_Institute,(7,_9),3_ >= 0
Q_OPV,Serum_Institute,(7,_10),1_ >= 0
Q_OPV,Serum_Institute,(7,_10),2_ >= 0
Q_OPV,Serum_Institute,(7,_10),3_ >= 0
Q_OPV,Serum_Institute,(8,_8),1_ >= 0
Q_OPV,Serum_Institute,(8,_8),2_ >= 0
Q_OPV,Serum_Institute,(8,_8),3_ >= 0
Q_OPV,Serum_Institute,(8,_9),1_ >= 0
Q_OPV,Serum_Institute,(8,_9),2_ >= 0
Q_OPV,Serum_Institute,(8,_9),3_ >= 0
Q_OPV,Serum_Institute,(8,_10),1_ >= 0
Q_OPV,Serum_Institute,(8,_10),2_ >= 0
Q_OPV,Serum_Institute,(8,_10),3_ >= 0
Q_OPV,Serum_Institute,(9,_9),1_ >= 0
Q_OPV,Serum_Institute,(9,_9),2_ >= 0
Q_OPV,Serum_Institute,(9,_9),3_ >= 0
Q_OPV,Serum_Institute,(9,_10),1_ >= 0
Q_OPV,Serum_Institute,(9,_10),2_ >= 0
Q_OPV,Serum_Institute,(9,_10),3_ >= 0
Q_OPV,Serum_Institute,(10,_10),1_ >= 0
Q_OPV,Serum_Institute,(10,_10),2_ >= 0
Q_OPV,Serum_Institute,(10,_10),3_ >= 0
Q_OPV,PT_Bio,(1,_1),1_ >= 0
Q_OPV,PT_Bio,(1,_1),2_ >= 0
Q_OPV,PT_Bio,(1,_1),3_ >= 0
Q_OPV,PT_Bio,(1,_2),1_ >= 0
Q_OPV,PT_Bio,(1,_2),2_ >= 0
Q_OPV,PT_Bio,(1,_2),3_ >= 0
Q_OPV,PT_Bio,(1,_3),1_ >= 0
Q_OPV,PT_Bio,(1,_3),2_ >= 0
Q_OPV,PT_Bio,(1,_3),3_ >= 0
Q_OPV,PT_Bio,(1,_4),1_ >= 0
Q_OPV,PT_Bio,(1,_4),2_ >= 0
Q_OPV,PT_Bio,(1,_4),3_ >= 0
Q_OPV,PT_Bio,(1,_5),1_ >= 0
Q_OPV,PT_Bio,(1,_5),2_ >= 0
Q_OPV,PT_Bio,(1,_5),3_ >= 0
Q_OPV,PT_Bio,(2,_2),1_ >= 0
Q_OPV,PT_Bio,(2,_2),2_ >= 0
Q_OPV,PT_Bio,(2,_2),3_ >= 0
Q_OPV,PT_Bio,(2,_3),1_ >= 0
Q_OPV,PT_Bio,(2,_3),2_ >= 0
Q_OPV,PT_Bio,(2,_3),3_ >= 0
Q_OPV,PT_Bio,(2,_4),1_ >= 0
Q_OPV,PT_Bio,(2,_4),2_ >= 0
Q_OPV,PT_Bio,(2,_4),3_ >= 0
Q_OPV,PT_Bio,(2,_5),1_ >= 0
Q_OPV,PT_Bio,(2,_5),2_ >= 0
Q_OPV,PT_Bio,(2,_5),3_ >= 0
Q_OPV,PT_Bio,(2,_6),1_ >= 0
Q_OPV,PT_Bio,(2,_6),2_ >= 0
Q_OPV,PT_Bio,(2,_6),3_ >= 0
Q_OPV,PT_Bio,(3,_3),1_ >= 0
Q_OPV,PT_Bio,(3,_3),2_ >= 0
Q_OPV,PT_Bio,(3,_3),3_ >= 0
Q_OPV,PT_Bio,(3,_4),1_ >= 0
Q_OPV,PT_Bio,(3,_4),2_ >= 0
Q_OPV,PT_Bio,(3,_4),3_ >= 0
Q_OPV,PT_Bio,(3,_5),1_ >= 0
Q_OPV,PT_Bio,(3,_5),2_ >= 0
Q_OPV,PT_Bio,(3,_5),3_ >= 0
Q_OPV,PT_Bio,(3,_6),1_ >= 0
Q_OPV,PT_Bio,(3,_6),2_ >= 0
Q_OPV,PT_Bio,(3,_6),3_ >= 0
Q_OPV,PT_Bio,(3,_7),1_ >= 0
Q_OPV,PT_Bio,(3,_7),2_ >= 0
Q_OPV,PT_Bio,(3,_7),3_ >= 0
Q_OPV,PT_Bio,(4,_4),1_ >= 0
Q_OPV,PT_Bio,(4,_4),2_ >= 0
Q_OPV,PT_Bio,(4,_4),3_ >= 0
Q_OPV,PT_Bio,(4,_5),1_ >= 0
Q_OPV,PT_Bio,(4,_5),2_ >= 0
Q_OPV,PT_Bio,(4,_5),3_ >= 0
Q_OPV,PT_Bio,(4,_6),1_ >= 0
Q_OPV,PT_Bio,(4,_6),2_ >= 0
Q_OPV,PT_Bio,(4,_6),3_ >= 0
Q_OPV,PT_Bio,(4,_7),1_ >= 0
Q_OPV,PT_Bio,(4,_7),2_ >= 0
Q_OPV,PT_Bio,(4,_7),3_ >= 0
Q_OPV,PT_Bio,(4,_8),1_ >= 0
Q_OPV,PT_Bio,(4,_8),2_ >= 0
Q_OPV,PT_Bio,(4,_8),3_ >= 0
Q_OPV,PT_Bio,(5,_5),1_ >= 0
Q_OPV,PT_Bio,(5,_5),2_ >= 0
Q_OPV,PT_Bio,(5,_5),3_ >= 0
Q_OPV,PT_Bio,(5,_6),1_ >= 0
Q_OPV,PT_Bio,(5,_6),2_ >= 0
Q_OPV,PT_Bio,(5,_6),3_ >= 0
Q_OPV,PT_Bio,(5,_7),1_ >= 0
Q_OPV,PT_Bio,(5,_7),2_ >= 0
Q_OPV,PT_Bio,(5,_7),3_ >= 0
Q_OPV,PT_Bio,(5,_8),1_ >= 0
Q_OPV,PT_Bio,(5,_8),2_ >= 0
Q_OPV,PT_Bio,(5,_8),3_ >= 0
Q_OPV,PT_Bio,(5,_9),1_ >= 0
Q_OPV,PT_Bio,(5,_9),2_ >= 0
Q_OPV,PT_Bio,(5,_9),3_ >= 0
Q_OPV,PT_Bio,(6,_6),1_ >= 0
Q_OPV,PT_Bio,(6,_6),2_ >= 0
Q_OPV,PT_Bio,(6,_6),3_ >= 0
Q_OPV,PT_Bio,(6,_7),1_ >= 0
Q_OPV,PT_Bio,(6,_7),2_ >= 0
Q_OPV,PT_Bio,(6,_7),3_ >= 0
Q_OPV,PT_Bio,(6,_8),1_ >= 0
Q_OPV,PT_Bio,(6,_8),2_ >= 0
Q_OPV,PT_Bio,(6,_8),3_ >= 0
Q_OPV,PT_Bio,(6,_9),1_ >= 0
Q_OPV,PT_Bio,(6,_9),2_ >= 0
Q_OPV,PT_Bio,(6,_9),3_ >= 0
Q_OPV,PT_Bio,(6,_10),1_ >= 0
Q_OPV,PT_Bio,(6,_10),2_ >= 0
Q_OPV,PT_Bio,(6,_10),3_ >= 0
Q_OPV,PT_Bio,(7,_7),1_ >= 0
Q_OPV,PT_Bio,(7,_7),2_ >= 0
Q_OPV,PT_Bio,(7,_7),3_ >= 0
Q_OPV,PT_Bio,(7,_8),1_ >= 0
Q_OPV,PT_Bio,(7,_8),2_ >= 0
Q_OPV,PT_Bio,(7,_8),3_ >= 0
Q_OPV,PT_Bio,(7,_9),1_ >= 0
Q_OPV,PT_Bio,(7,_9),2_ >= 0
Q_OPV,PT_Bio,(7,_9),3_ >= 0
Q_OPV,PT_Bio,(7,_10),1_ >= 0
Q_OPV,PT_Bio,(7,_10),2_ >= 0
Q_OPV,PT_Bio,(7,_10),3_ >= 0
Q_OPV,PT_Bio,(8,_8),1_ >= 0
Q_OPV,PT_Bio,(8,_8),2_ >= 0
Q_OPV,PT_Bio,(8,_8),3_ >= 0
Q_OPV,PT_Bio,(8,_9),1_ >= 0
Q_OPV,PT_Bio,(8,_9),2_ >= 0
Q_OPV,PT_Bio,(8,_9),3_ >= 0
Q_OPV,PT_Bio,(8,_10),1_ >= 0
Q_OPV,PT_Bio,(8,_10),2_ >= 0
Q_OPV,PT_Bio,(8,_10),3_ >= 0
Q_OPV,PT_Bio,(9,_9),1_ >= 0
Q_OPV,PT_Bio,(9,_9),2_ >= 0
Q_OPV,PT_Bio,(9,_9),3_ >= 0
Q_OPV,PT_Bio,(9,_10),1_ >= 0
Q_OPV,PT_Bio,(9,_10),2_ >= 0
Q_OPV,PT_Bio,(9,_10),3_ >= 0
Q_OPV,PT_Bio,(10,_10),1_ >= 0
Q_OPV,PT_Bio,(10,_10),2_ >= 0
Q_OPV,PT_Bio,(10,_10),3_ >= 0
Q_OPV,GSK,(1,_1),1_ >= 0
Q_OPV,GSK,(1,_1),2_ >= 0
Q_OPV,GSK,(1,_1),3_ >= 0
Q_OPV,GSK,(1,_2),1_ >= 0
Q_OPV,GSK,(1,_2),2_ >= 0
Q_OPV,GSK,(1,_2),3_ >= 0
Q_OPV,GSK,(1,_3),1_ >= 0
Q_OPV,GSK,(1,_3),2_ >= 0
Q_OPV,GSK,(1,_3),3_ >= 0
Q_OPV,GSK,(1,_4),1_ >= 0
Q_OPV,GSK,(1,_4),2_ >= 0
Q_OPV,GSK,(1,_4),3_ >= 0
Q_OPV,GSK,(1,_5),1_ >= 0
Q_OPV,GSK,(1,_5),2_ >= 0
Q_OPV,GSK,(1,_5),3_ >= 0
Q_OPV,GSK,(2,_2),1_ >= 0
Q_OPV,GSK,(2,_2),2_ >= 0
Q_OPV,GSK,(2,_2),3_ >= 0
Q_OPV,GSK,(2,_3),1_ >= 0
Q_OPV,GSK,(2,_3),2_ >= 0
Q_OPV,GSK,(2,_3),3_ >= 0
Q_OPV,GSK,(2,_4),1_ >= 0
Q_OPV,GSK,(2,_4),2_ >= 0
Q_OPV,GSK,(2,_4),3_ >= 0
Q_OPV,GSK,(2,_5),1_ >= 0
Q_OPV,GSK,(2,_5),2_ >= 0
Q_OPV,GSK,(2,_5),3_ >= 0
Q_OPV,GSK,(2,_6),1_ >= 0
Q_OPV,GSK,(2,_6),2_ >= 0
Q_OPV,GSK,(2,_6),3_ >= 0
Q_OPV,GSK,(3,_3),1_ >= 0
Q_OPV,GSK,(3,_3),2_ >= 0
Q_OPV,GSK,(3,_3),3_ >= 0
Q_OPV,GSK,(3,_4),1_ >= 0
Q_OPV,GSK,(3,_4),2_ >= 0
Q_OPV,GSK,(3,_4),3_ >= 0
Q_OPV,GSK,(3,_5),1_ >= 0
Q_OPV,GSK,(3,_5),2_ >= 0
Q_OPV,GSK,(3,_5),3_ >= 0
Q_OPV,GSK,(3,_6),1_ >= 0
Q_OPV,GSK,(3,_6),2_ >= 0
Q_OPV,GSK,(3,_6),3_ >= 0
Q_OPV,GSK,(3,_7),1_ >= 0
Q_OPV,GSK,(3,_7),2_ >= 0
Q_OPV,GSK,(3,_7),3_ >= 0
Q_OPV,GSK,(4,_4),1_ >= 0
Q_OPV,GSK,(4,_4),2_ >= 0
Q_OPV,GSK,(4,_4),3_ >= 0
Q_OPV,GSK,(4,_5),1_ >= 0
Q_OPV,GSK,(4,_5),2_ >= 0
Q_OPV,GSK,(4,_5),3_ >= 0
Q_OPV,GSK,(4,_6),1_ >= 0
Q_OPV,GSK,(4,_6),2_ >= 0
Q_OPV,GSK,(4,_6),3_ >= 0
Q_OPV,GSK,(4,_7),1_ >= 0
Q_OPV,GSK,(4,_7),2_ >= 0
Q_OPV,GSK,(4,_7),3_ >= 0
Q_OPV,GSK,(4,_8),1_ >= 0
Q_OPV,GSK,(4,_8),2_ >= 0
Q_OPV,GSK,(4,_8),3_ >= 0
Q_OPV,GSK,(5,_5),1_ >= 0
Q_OPV,GSK,(5,_5),2_ >= 0
Q_OPV,GSK,(5,_5),3_ >= 0
Q_OPV,GSK,(5,_6),1_ >= 0
Q_OPV,GSK,(5,_6),2_ >= 0
Q_OPV,GSK,(5,_6),3_ >= 0
Q_OPV,GSK,(5,_7),1_ >= 0
Q_OPV,GSK,(5,_7),2_ >= 0
Q_OPV,GSK,(5,_7),3_ >= 0
Q_OPV,GSK,(5,_8),1_ >= 0
Q_OPV,GSK,(5,_8),2_ >= 0
Q_OPV,GSK,(5,_8),3_ >= 0
Q_OPV,GSK,(5,_9),1_ >= 0
Q_OPV,GSK,(5,_9),2_ >= 0
Q_OPV,GSK,(5,_9),3_ >= 0
Q_OPV,GSK,(6,_6),1_ >= 0
Q_OPV,GSK,(6,_6),2_ >= 0
Q_OPV,GSK,(6,_6),3_ >= 0
Q_OPV,GSK,(6,_7),1_ >= 0
Q_OPV,GSK,(6,_7),2_ >= 0
Q_OPV,GSK,(6,_7),3_ >= 0
Q_OPV,GSK,(6,_8),1_ >= 0
Q_OPV,GSK,(6,_8),2_ >= 0
Q_OPV,GSK,(6,_8),3_ >= 0
Q_OPV,GSK,(6,_9),1_ >= 0
Q_OPV,GSK,(6,_9),2_ >= 0
Q_OPV,GSK,(6,_9),3_ >= 0
Q_OPV,GSK,(6,_10),1_ >= 0
Q_OPV,GSK,(6,_10),2_ >= 0
Q_OPV,GSK,(6,_10),3_ >= 0
Q_OPV,GSK,(7,_7),1_ >= 0
Q_OPV,GSK,(7,_7),2_ >= 0
Q_OPV,GSK,(7,_7),3_ >= 0
Q_OPV,GSK,(7,_8),1_ >= 0
Q_OPV,GSK,(7,_8),2_ >= 0
Q_OPV,GSK,(7,_8),3_ >= 0
Q_OPV,GSK,(7,_9),1_ >= 0
Q_OPV,GSK,(7,_9),2_ >= 0
Q_OPV,GSK,(7,_9),3_ >= 0
Q_OPV,GSK,(7,_10),1_ >= 0
Q_OPV,GSK,(7,_10),2_ >= 0
Q_OPV,GSK,(7,_10),3_ >= 0
Q_OPV,GSK,(8,_8),1_ >= 0
Q_OPV,GSK,(8,_8),2_ >= 0
Q_OPV,GSK,(8,_8),3_ >= 0
Q_OPV,GSK,(8,_9),1_ >= 0
Q_OPV,GSK,(8,_9),2_ >= 0
Q_OPV,GSK,(8,_9),3_ >= 0
Q_OPV,GSK,(8,_10),1_ >= 0
Q_OPV,GSK,(8,_10),2_ >= 0
Q_OPV,GSK,(8,_10),3_ >= 0
Q_OPV,GSK,(9,_9),1_ >= 0
Q_OPV,GSK,(9,_9),2_ >= 0
Q_OPV,GSK,(9,_9),3_ >= 0
Q_OPV,GSK,(9,_10),1_ >= 0
Q_OPV,GSK,(9,_10),2_ >= 0
Q_OPV,GSK,(9,_10),3_ >= 0
Q_OPV,GSK,(10,_10),1_ >= 0
Q_OPV,GSK,(10,_10),2_ >= 0
Q_OPV,GSK,(10,_10),3_ >= 0
Q_OPV,Sanofi,(1,_1),1_ >= 0
Q_OPV,Sanofi,(1,_1),2_ >= 0
Q_OPV,Sanofi,(1,_1),3_ >= 0
Q_OPV,Sanofi,(1,_2),1_ >= 0
Q_OPV,Sanofi,(1,_2),2_ >= 0
Q_OPV,Sanofi,(1,_2),3_ >= 0
Q_OPV,Sanofi,(1,_3),1_ >= 0
Q_OPV,Sanofi,(1,_3),2_ >= 0
Q_OPV,Sanofi,(1,_3),3_ >= 0
Q_OPV,Sanofi,(1,_4),1_ >= 0
Q_OPV,Sanofi,(1,_4),2_ >= 0
Q_OPV,Sanofi,(1,_4),3_ >= 0
Q_OPV,Sanofi,(1,_5),1_ >= 0
Q_OPV,Sanofi,(1,_5),2_ >= 0
Q_OPV,Sanofi,(1,_5),3_ >= 0
Q_OPV,Sanofi,(2,_2),1_ >= 0
Q_OPV,Sanofi,(2,_2),2_ >= 0
Q_OPV,Sanofi,(2,_2),3_ >= 0
Q_OPV,Sanofi,(2,_3),1_ >= 0
Q_OPV,Sanofi,(2,_3),2_ >= 0
Q_OPV,Sanofi,(2,_3),3_ >= 0
Q_OPV,Sanofi,(2,_4),1_ >= 0
Q_OPV,Sanofi,(2,_4),2_ >= 0
Q_OPV,Sanofi,(2,_4),3_ >= 0
Q_OPV,Sanofi,(2,_5),1_ >= 0
Q_OPV,Sanofi,(2,_5),2_ >= 0
Q_OPV,Sanofi,(2,_5),3_ >= 0
Q_OPV,Sanofi,(2,_6),1_ >= 0
Q_OPV,Sanofi,(2,_6),2_ >= 0
Q_OPV,Sanofi,(2,_6),3_ >= 0
Q_OPV,Sanofi,(3,_3),1_ >= 0
Q_OPV,Sanofi,(3,_3),2_ >= 0
Q_OPV,Sanofi,(3,_3),3_ >= 0
Q_OPV,Sanofi,(3,_4),1_ >= 0
Q_OPV,Sanofi,(3,_4),2_ >= 0
Q_OPV,Sanofi,(3,_4),3_ >= 0
Q_OPV,Sanofi,(3,_5),1_ >= 0
Q_OPV,Sanofi,(3,_5),2_ >= 0
Q_OPV,Sanofi,(3,_5),3_ >= 0
Q_OPV,Sanofi,(3,_6),1_ >= 0
Q_OPV,Sanofi,(3,_6),2_ >= 0
Q_OPV,Sanofi,(3,_6),3_ >= 0
Q_OPV,Sanofi,(3,_7),1_ >= 0
Q_OPV,Sanofi,(3,_7),2_ >= 0
Q_OPV,Sanofi,(3,_7),3_ >= 0
Q_OPV,Sanofi,(4,_4),1_ >= 0
Q_OPV,Sanofi,(4,_4),2_ >= 0
Q_OPV,Sanofi,(4,_4),3_ >= 0
Q_OPV,Sanofi,(4,_5),1_ >= 0
Q_OPV,Sanofi,(4,_5),2_ >= 0
Q_OPV,Sanofi,(4,_5),3_ >= 0
Q_OPV,Sanofi,(4,_6),1_ >= 0
Q_OPV,Sanofi,(4,_6),2_ >= 0
Q_OPV,Sanofi,(4,_6),3_ >= 0
Q_OPV,Sanofi,(4,_7),1_ >= 0
Q_OPV,Sanofi,(4,_7),2_ >= 0
Q_OPV,Sanofi,(4,_7),3_ >= 0
Q_OPV,Sanofi,(4,_8),1_ >= 0
Q_OPV,Sanofi,(4,_8),2_ >= 0
Q_OPV,Sanofi,(4,_8),3_ >= 0
Q_OPV,Sanofi,(5,_5),1_ >= 0
Q_OPV,Sanofi,(5,_5),2_ >= 0
Q_OPV,Sanofi,(5,_5),3_ >= 0
Q_OPV,Sanofi,(5,_6),1_ >= 0
Q_OPV,Sanofi,(5,_6),2_ >= 0
Q_OPV,Sanofi,(5,_6),3_ >= 0
Q_OPV,Sanofi,(5,_7),1_ >= 0
Q_OPV,Sanofi,(5,_7),2_ >= 0
Q_OPV,Sanofi,(5,_7),3_ >= 0
Q_OPV,Sanofi,(5,_8),1_ >= 0
Q_OPV,Sanofi,(5,_8),2_ >= 0
Q_OPV,Sanofi,(5,_8),3_ >= 0
Q_OPV,Sanofi,(5,_9),1_ >= 0
Q_OPV,Sanofi,(5,_9),2_ >= 0
Q_OPV,Sanofi,(5,_9),3_ >= 0
Q_OPV,Sanofi,(6,_6),1_ >= 0
Q_OPV,Sanofi,(6,_6),2_ >= 0
Q_OPV,Sanofi,(6,_6),3_ >= 0
Q_OPV,Sanofi,(6,_7),1_ >= 0
Q_OPV,Sanofi,(6,_7),2_ >= 0
Q_OPV,Sanofi,(6,_7),3_ >= 0
Q_OPV,Sanofi,(6,_8),1_ >= 0
Q_OPV,Sanofi,(6,_8),2_ >= 0
Q_OPV,Sanofi,(6,_8),3_ >= 0
Q_OPV,Sanofi,(6,_9),1_ >= 0
Q_OPV,Sanofi,(6,_9),2_ >= 0
Q_OPV,Sanofi,(6,_9),3_ >= 0
Q_OPV,Sanofi,(6,_10),1_ >= 0
Q_OPV,Sanofi,(6,_10),2_ >= 0
Q_OPV,Sanofi,(6,_10),3_ >= 0
Q_OPV,Sanofi,(7,_7),1_ >= 0
Q_OPV,Sanofi,(7,_7),2_ >= 0
Q_OPV,Sanofi,(7,_7),3_ >= 0
Q_OPV,Sanofi,(7,_8),1_ >= 0
Q_OPV,Sanofi,(7,_8),2_ >= 0
Q_OPV,Sanofi,(7,_8),3_ >= 0
Q_OPV,Sanofi,(7,_9),1_ >= 0
Q_OPV,Sanofi,(7,_9),2_ >= 0
Q_OPV,Sanofi,(7,_9),3_ >= 0
Q_OPV,Sanofi,(7,_10),1_ >= 0
Q_OPV,Sanofi,(7,_10),2_ >= 0
Q_OPV,Sanofi,(7,_10),3_ >= 0
Q_OPV,Sanofi,(8,_8),1_ >= 0
Q_OPV,Sanofi,(8,_8),2_ >= 0
Q_OPV,Sanofi,(8,_8),3_ >= 0
Q_OPV,Sanofi,(8,_9),1_ >= 0
Q_OPV,Sanofi,(8,_9),2_ >= 0
Q_OPV,Sanofi,(8,_9),3_ >= 0
Q_OPV,Sanofi,(8,_10),1_ >= 0
Q_OPV,Sanofi,(8,_10),2_ >= 0
Q_OPV,Sanofi,(8,_10),3_ >= 0
Q_OPV,Sanofi,(9,_9),1_ >= 0
Q_OPV,Sanofi,(9,_9),2_ >= 0
Q_OPV,Sanofi,(9,_9),3_ >= 0
Q_OPV,Sanofi,(9,_10),1_ >= 0
Q_OPV,Sanofi,(9,_10),2_ >= 0
Q_OPV,Sanofi,(9,_10),3_ >= 0
Q_OPV,Sanofi,(10,_10),1_ >= 0
Q_OPV,Sanofi,(10,_10),2_ >= 0
Q_OPV,Sanofi,(10,_10),3_ >= 0
Q_OPV,Panacea_Biotec,(1,_1),1_ >= 0
Q_OPV,Panacea_Biotec,(1,_1),2_ >= 0
Q_OPV,Panacea_Biotec,(1,_1),3_ >= 0
Q_OPV,Panacea_Biotec,(1,_2),1_ >= 0
Q_OPV,Panacea_Biotec,(1,_2),2_ >= 0
Q_OPV,Panacea_Biotec,(1,_2),3_ >= 0
Q_OPV,Panacea_Biotec,(1,_3),1_ >= 0
Q_OPV,Panacea_Biotec,(1,_3),2_ >= 0
Q_OPV,Panacea_Biotec,(1,_3),3_ >= 0
Q_OPV,Panacea_Biotec,(1,_4),1_ >= 0
Q_OPV,Panacea_Biotec,(1,_4),2_ >= 0
Q_OPV,Panacea_Biotec,(1,_4),3_ >= 0
Q_OPV,Panacea_Biotec,(1,_5),1_ >= 0
Q_OPV,Panacea_Biotec,(1,_5),2_ >= 0
Q_OPV,Panacea_Biotec,(1,_5),3_ >= 0
Q_OPV,Panacea_Biotec,(2,_2),1_ >= 0
Q_OPV,Panacea_Biotec,(2,_2),2_ >= 0
Q_OPV,Panacea_Biotec,(2,_2),3_ >= 0
Q_OPV,Panacea_Biotec,(2,_3),1_ >= 0
Q_OPV,Panacea_Biotec,(2,_3),2_ >= 0
Q_OPV,Panacea_Biotec,(2,_3),3_ >= 0
Q_OPV,Panacea_Biotec,(2,_4),1_ >= 0
Q_OPV,Panacea_Biotec,(2,_4),2_ >= 0
Q_OPV,Panacea_Biotec,(2,_4),3_ >= 0
Q_OPV,Panacea_Biotec,(2,_5),1_ >= 0
Q_OPV,Panacea_Biotec,(2,_5),2_ >= 0
Q_OPV,Panacea_Biotec,(2,_5),3_ >= 0
Q_OPV,Panacea_Biotec,(2,_6),1_ >= 0
Q_OPV,Panacea_Biotec,(2,_6),2_ >= 0
Q_OPV,Panacea_Biotec,(2,_6),3_ >= 0
Q_OPV,Panacea_Biotec,(3,_3),1_ >= 0
Q_OPV,Panacea_Biotec,(3,_3),2_ >= 0
Q_OPV,Panacea_Biotec,(3,_3),3_ >= 0
Q_OPV,Panacea_Biotec,(3,_4),1_ >= 0
Q_OPV,Panacea_Biotec,(3,_4),2_ >= 0
Q_OPV,Panacea_Biotec,(3,_4),3_ >= 0
Q_OPV,Panacea_Biotec,(3,_5),1_ >= 0
Q_OPV,Panacea_Biotec,(3,_5),2_ >= 0
Q_OPV,Panacea_Biotec,(3,_5),3_ >= 0
Q_OPV,Panacea_Biotec,(3,_6),1_ >= 0
Q_OPV,Panacea_Biotec,(3,_6),2_ >= 0
Q_OPV,Panacea_Biotec,(3,_6),3_ >= 0
Q_OPV,Panacea_Biotec,(3,_7),1_ >= 0
Q_OPV,Panacea_Biotec,(3,_7),2_ >= 0
Q_OPV,Panacea_Biotec,(3,_7),3_ >= 0
Q_OPV,Panacea_Biotec,(4,_4),1_ >= 0
Q_OPV,Panacea_Biotec,(4,_4),2_ >= 0
Q_OPV,Panacea_Biotec,(4,_4),3_ >= 0
Q_OPV,Panacea_Biotec,(4,_5),1_ >= 0
Q_OPV,Panacea_Biotec,(4,_5),2_ >= 0
Q_OPV,Panacea_Biotec,(4,_5),3_ >= 0
Q_OPV,Panacea_Biotec,(4,_6),1_ >= 0
Q_OPV,Panacea_Biotec,(4,_6),2_ >= 0
Q_OPV,Panacea_Biotec,(4,_6),3_ >= 0
Q_OPV,Panacea_Biotec,(4,_7),1_ >= 0
Q_OPV,Panacea_Biotec,(4,_7),2_ >= 0
Q_OPV,Panacea_Biotec,(4,_7),3_ >= 0
Q_OPV,Panacea_Biotec,(4,_8),1_ >= 0
Q_OPV,Panacea_Biotec,(4,_8),2_ >= 0
Q_OPV,Panacea_Biotec,(4,_8),3_ >= 0
Q_OPV,Panacea_Biotec,(5,_5),1_ >= 0
Q_OPV,Panacea_Biotec,(5,_5),2_ >= 0
Q_OPV,Panacea_Biotec,(5,_5),3_ >= 0
Q_OPV,Panacea_Biotec,(5,_6),1_ >= 0
Q_OPV,Panacea_Biotec,(5,_6),2_ >= 0
Q_OPV,Panacea_Biotec,(5,_6),3_ >= 0
Q_OPV,Panacea_Biotec,(5,_7),1_ >= 0
Q_OPV,Panacea_Biotec,(5,_7),2_ >= 0
Q_OPV,Panacea_Biotec,(5,_7),3_ >= 0
Q_OPV,Panacea_Biotec,(5,_8),1_ >= 0
Q_OPV,Panacea_Biotec,(5,_8),2_ >= 0
Q_OPV,Panacea_Biotec,(5,_8),3_ >= 0
Q_OPV,Panacea_Biotec,(5,_9),1_ >= 0
Q_OPV,Panacea_Biotec,(5,_9),2_ >= 0
Q_OPV,Panacea_Biotec,(5,_9),3_ >= 0
Q_OPV,Panacea_Biotec,(6,_6),1_ >= 0
Q_OPV,Panacea_Biotec,(6,_6),2_ >= 0
Q_OPV,Panacea_Biotec,(6,_6),3_ >= 0
Q_OPV,Panacea_Biotec,(6,_7),1_ >= 0
Q_OPV,Panacea_Biotec,(6,_7),2_ >= 0
Q_OPV,Panacea_Biotec,(6,_7),3_ >= 0
Q_OPV,Panacea_Biotec,(6,_8),1_ >= 0
Q_OPV,Panacea_Biotec,(6,_8),2_ >= 0
Q_OPV,Panacea_Biotec,(6,_8),3_ >= 0
Q_OPV,Panacea_Biotec,(6,_9),1_ >= 0
Q_OPV,Panacea_Biotec,(6,_9),2_ >= 0
Q_OPV,Panacea_Biotec,(6,_9),3_ >= 0
Q_OPV,Panacea_Biotec,(6,_10),1_ >= 0
Q_OPV,Panacea_Biotec,(6,_10),2_ >= 0
Q_OPV,Panacea_Biotec,(6,_10),3_ >= 0
Q_OPV,Panacea_Biotec,(7,_7),1_ >= 0
Q_OPV,Panacea_Biotec,(7,_7),2_ >= 0
Q_OPV,Panacea_Biotec,(7,_7),3_ >= 0
Q_OPV,Panacea_Biotec,(7,_8),1_ >= 0
Q_OPV,Panacea_Biotec,(7,_8),2_ >= 0
Q_OPV,Panacea_Biotec,(7,_8),3_ >= 0
Q_OPV,Panacea_Biotec,(7,_9),1_ >= 0
Q_OPV,Panacea_Biotec,(7,_9),2_ >= 0
Q_OPV,Panacea_Biotec,(7,_9),3_ >= 0
Q_OPV,Panacea_Biotec,(7,_10),1_ >= 0
Q_OPV,Panacea_Biotec,(7,_10),2_ >= 0
Q_OPV,Panacea_Biotec,(7,_10),3_ >= 0
Q_OPV,Panacea_Biotec,(8,_8),1_ >= 0
Q_OPV,Panacea_Biotec,(8,_8),2_ >= 0
Q_OPV,Panacea_Biotec,(8,_8),3_ >= 0
Q_OPV,Panacea_Biotec,(8,_9),1_ >= 0
Q_OPV,Panacea_Biotec,(8,_9),2_ >= 0
Q_OPV,Panacea_Biotec,(8,_9),3_ >= 0
Q_OPV,Panacea_Biotec,(8,_10),1_ >= 0
Q_OPV,Panacea_Biotec,(8,_10),2_ >= 0
Q_OPV,Panacea_Biotec,(8,_10),3_ >= 0
Q_OPV,Panacea_Biotec,(9,_9),1_ >= 0
Q_OPV,Panacea_Biotec,(9,_9),2_ >= 0
Q_OPV,Panacea_Biotec,(9,_9),3_ >= 0
Q_OPV,Panacea_Biotec,(9,_10),1_ >= 0
Q_OPV,Panacea_Biotec,(9,_10),2_ >= 0
Q_OPV,Panacea_Biotec,(9,_10),3_ >= 0
Q_OPV,Panacea_Biotec,(10,_10),1_ >= 0
Q_OPV,Panacea_Biotec,(10,_10),2_ >= 0
Q_OPV,Panacea_Biotec,(10,_10),3_ >= 0
Q_OPV,China_National,(1,_1),1_ >= 0
Q_OPV,China_National,(1,_1),2_ >= 0
Q_OPV,China_National,(1,_1),3_ >= 0
Q_OPV,China_National,(1,_2),1_ >= 0
Q_OPV,China_National,(1,_2),2_ >= 0
Q_OPV,China_National,(1,_2),3_ >= 0
Q_OPV,China_National,(1,_3),1_ >= 0
Q_OPV,China_National,(1,_3),2_ >= 0
Q_OPV,China_National,(1,_3),3_ >= 0
Q_OPV,China_National,(1,_4),1_ >= 0
Q_OPV,China_National,(1,_4),2_ >= 0
Q_OPV,China_National,(1,_4),3_ >= 0
Q_OPV,China_National,(1,_5),1_ >= 0
Q_OPV,China_National,(1,_5),2_ >= 0
Q_OPV,China_National,(1,_5),3_ >= 0
Q_OPV,China_National,(2,_2),1_ >= 0
Q_OPV,China_National,(2,_2),2_ >= 0
Q_OPV,China_National,(2,_2),3_ >= 0
Q_OPV,China_National,(2,_3),1_ >= 0
Q_OPV,China_National,(2,_3),2_ >= 0
Q_OPV,China_National,(2,_3),3_ >= 0
Q_OPV,China_National,(2,_4),1_ >= 0
Q_OPV,China_National,(2,_4),2_ >= 0
Q_OPV,China_National,(2,_4),3_ >= 0
Q_OPV,China_National,(2,_5),1_ >= 0
Q_OPV,China_National,(2,_5),2_ >= 0
Q_OPV,China_National,(2,_5),3_ >= 0
Q_OPV,China_National,(2,_6),1_ >= 0
Q_OPV,China_National,(2,_6),2_ >= 0
Q_OPV,China_National,(2,_6),3_ >= 0
Q_OPV,China_National,(3,_3),1_ >= 0
Q_OPV,China_National,(3,_3),2_ >= 0
Q_OPV,China_National,(3,_3),3_ >= 0
Q_OPV,China_National,(3,_4),1_ >= 0
Q_OPV,China_National,(3,_4),2_ >= 0
Q_OPV,China_National,(3,_4),3_ >= 0
Q_OPV,China_National,(3,_5),1_ >= 0
Q_OPV,China_National,(3,_5),2_ >= 0
Q_OPV,China_National,(3,_5),3_ >= 0
Q_OPV,China_National,(3,_6),1_ >= 0
Q_OPV,China_National,(3,_6),2_ >= 0
Q_OPV,China_National,(3,_6),3_ >= 0
Q_OPV,China_National,(3,_7),1_ >= 0
Q_OPV,China_National,(3,_7),2_ >= 0
Q_OPV,China_National,(3,_7),3_ >= 0
Q_OPV,China_National,(4,_4),1_ >= 0
Q_OPV,China_National,(4,_4),2_ >= 0
Q_OPV,China_National,(4,_4),3_ >= 0
Q_OPV,China_National,(4,_5),1_ >= 0
Q_OPV,China_National,(4,_5),2_ >= 0
Q_OPV,China_National,(4,_5),3_ >= 0
Q_OPV,China_National,(4,_6),1_ >= 0
Q_OPV,China_National,(4,_6),2_ >= 0
Q_OPV,China_National,(4,_6),3_ >= 0
Q_OPV,China_National,(4,_7),1_ >= 0
Q_OPV,China_National,(4,_7),2_ >= 0
Q_OPV,China_National,(4,_7),3_ >= 0
Q_OPV,China_National,(4,_8),1_ >= 0
Q_OPV,China_National,(4,_8),2_ >= 0
Q_OPV,China_National,(4,_8),3_ >= 0
Q_OPV,China_National,(5,_5),1_ >= 0
Q_OPV,China_National,(5,_5),2_ >= 0
Q_OPV,China_National,(5,_5),3_ >= 0
Q_OPV,China_National,(5,_6),1_ >= 0
Q_OPV,China_National,(5,_6),2_ >= 0
Q_OPV,China_National,(5,_6),3_ >= 0
Q_OPV,China_National,(5,_7),1_ >= 0
Q_OPV,China_National,(5,_7),2_ >= 0
Q_OPV,China_National,(5,_7),3_ >= 0
Q_OPV,China_National,(5,_8),1_ >= 0
Q_OPV,China_National,(5,_8),2_ >= 0
Q_OPV,China_National,(5,_8),3_ >= 0
Q_OPV,China_National,(5,_9),1_ >= 0
Q_OPV,China_National,(5,_9),2_ >= 0
Q_OPV,China_National,(5,_9),3_ >= 0
Q_OPV,China_National,(6,_6),1_ >= 0
Q_OPV,China_National,(6,_6),2_ >= 0
Q_OPV,China_National,(6,_6),3_ >= 0
Q_OPV,China_National,(6,_7),1_ >= 0
Q_OPV,China_National,(6,_7),2_ >= 0
Q_OPV,China_National,(6,_7),3_ >= 0
Q_OPV,China_National,(6,_8),1_ >= 0
Q_OPV,China_National,(6,_8),2_ >= 0
Q_OPV,China_National,(6,_8),3_ >= 0
Q_OPV,China_National,(6,_9),1_ >= 0
Q_OPV,China_National,(6,_9),2_ >= 0
Q_OPV,China_National,(6,_9),3_ >= 0
Q_OPV,China_National,(6,_10),1_ >= 0
Q_OPV,China_National,(6,_10),2_ >= 0
Q_OPV,China_National,(6,_10),3_ >= 0
Q_OPV,China_National,(7,_7),1_ >= 0
Q_OPV,China_National,(7,_7),2_ >= 0
Q_OPV,China_National,(7,_7),3_ >= 0
Q_OPV,China_National,(7,_8),1_ >= 0
Q_OPV,China_National,(7,_8),2_ >= 0
Q_OPV,China_National,(7,_8),3_ >= 0
Q_OPV,China_National,(7,_9),1_ >= 0
Q_OPV,China_National,(7,_9),2_ >= 0
Q_OPV,China_National,(7,_9),3_ >= 0
Q_OPV,China_National,(7,_10),1_ >= 0
Q_OPV,China_National,(7,_10),2_ >= 0
Q_OPV,China_National,(7,_10),3_ >= 0
Q_OPV,China_National,(8,_8),1_ >= 0
Q_OPV,China_National,(8,_8),2_ >= 0
Q_OPV,China_National,(8,_8),3_ >= 0
Q_OPV,China_National,(8,_9),1_ >= 0
Q_OPV,China_National,(8,_9),2_ >= 0
Q_OPV,China_National,(8,_9),3_ >= 0
Q_OPV,China_National,(8,_10),1_ >= 0
Q_OPV,China_National,(8,_10),2_ >= 0
Q_OPV,China_National,(8,_10),3_ >= 0
Q_OPV,China_National,(9,_9),1_ >= 0
Q_OPV,China_National,(9,_9),2_ >= 0
Q_OPV,China_National,(9,_9),3_ >= 0
Q_OPV,China_National,(9,_10),1_ >= 0
Q_OPV,China_National,(9,_10),2_ >= 0
Q_OPV,China_National,(9,_10),3_ >= 0
Q_OPV,China_National,(10,_10),1_ >= 0
Q_OPV,China_National,(10,_10),2_ >= 0
Q_OPV,China_National,(10,_10),3_ >= 0
Q_OPV,Bharat_Biotech,(1,_1),1_ >= 0
Q_OPV,Bharat_Biotech,(1,_1),2_ >= 0
Q_OPV,Bharat_Biotech,(1,_1),3_ >= 0
Q_OPV,Bharat_Biotech,(1,_2),1_ >= 0
Q_OPV,Bharat_Biotech,(1,_2),2_ >= 0
Q_OPV,Bharat_Biotech,(1,_2),3_ >= 0
Q_OPV,Bharat_Biotech,(1,_3),1_ >= 0
Q_OPV,Bharat_Biotech,(1,_3),2_ >= 0
Q_OPV,Bharat_Biotech,(1,_3),3_ >= 0
Q_OPV,Bharat_Biotech,(1,_4),1_ >= 0
Q_OPV,Bharat_Biotech,(1,_4),2_ >= 0
Q_OPV,Bharat_Biotech,(1,_4),3_ >= 0
Q_OPV,Bharat_Biotech,(1,_5),1_ >= 0
Q_OPV,Bharat_Biotech,(1,_5),2_ >= 0
Q_OPV,Bharat_Biotech,(1,_5),3_ >= 0
Q_OPV,Bharat_Biotech,(2,_2),1_ >= 0
Q_OPV,Bharat_Biotech,(2,_2),2_ >= 0
Q_OPV,Bharat_Biotech,(2,_2),3_ >= 0
Q_OPV,Bharat_Biotech,(2,_3),1_ >= 0
Q_OPV,Bharat_Biotech,(2,_3),2_ >= 0
Q_OPV,Bharat_Biotech,(2,_3),3_ >= 0
Q_OPV,Bharat_Biotech,(2,_4),1_ >= 0
Q_OPV,Bharat_Biotech,(2,_4),2_ >= 0
Q_OPV,Bharat_Biotech,(2,_4),3_ >= 0
Q_OPV,Bharat_Biotech,(2,_5),1_ >= 0
Q_OPV,Bharat_Biotech,(2,_5),2_ >= 0
Q_OPV,Bharat_Biotech,(2,_5),3_ >= 0
Q_OPV,Bharat_Biotech,(2,_6),1_ >= 0
Q_OPV,Bharat_Biotech,(2,_6),2_ >= 0
Q_OPV,Bharat_Biotech,(2,_6),3_ >= 0
Q_OPV,Bharat_Biotech,(3,_3),1_ >= 0
Q_OPV,Bharat_Biotech,(3,_3),2_ >= 0
Q_OPV,Bharat_Biotech,(3,_3),3_ >= 0
Q_OPV,Bharat_Biotech,(3,_4),1_ >= 0
Q_OPV,Bharat_Biotech,(3,_4),2_ >= 0
Q_OPV,Bharat_Biotech,(3,_4),3_ >= 0
Q_OPV,Bharat_Biotech,(3,_5),1_ >= 0
Q_OPV,Bharat_Biotech,(3,_5),2_ >= 0
Q_OPV,Bharat_Biotech,(3,_5),3_ >= 0
Q_OPV,Bharat_Biotech,(3,_6),1_ >= 0
Q_OPV,Bharat_Biotech,(3,_6),2_ >= 0
Q_OPV,Bharat_Biotech,(3,_6),3_ >= 0
Q_OPV,Bharat_Biotech,(3,_7),1_ >= 0
Q_OPV,Bharat_Biotech,(3,_7),2_ >= 0
Q_OPV,Bharat_Biotech,(3,_7),3_ >= 0
Q_OPV,Bharat_Biotech,(4,_4),1_ >= 0
Q_OPV,Bharat_Biotech,(4,_4),2_ >= 0
Q_OPV,Bharat_Biotech,(4,_4),3_ >= 0
Q_OPV,Bharat_Biotech,(4,_5),1_ >= 0
Q_OPV,Bharat_Biotech,(4,_5),2_ >= 0
Q_OPV,Bharat_Biotech,(4,_5),3_ >= 0
Q_OPV,Bharat_Biotech,(4,_6),1_ >= 0
Q_OPV,Bharat_Biotech,(4,_6),2_ >= 0
Q_OPV,Bharat_Biotech,(4,_6),3_ >= 0
Q_OPV,Bharat_Biotech,(4,_7),1_ >= 0
Q_OPV,Bharat_Biotech,(4,_7),2_ >= 0
Q_OPV,Bharat_Biotech,(4,_7),3_ >= 0
Q_OPV,Bharat_Biotech,(4,_8),1_ >= 0
Q_OPV,Bharat_Biotech,(4,_8),2_ >= 0
Q_OPV,Bharat_Biotech,(4,_8),3_ >= 0
Q_OPV,Bharat_Biotech,(5,_5),1_ >= 0
Q_OPV,Bharat_Biotech,(5,_5),2_ >= 0
Q_OPV,Bharat_Biotech,(5,_5),3_ >= 0
Q_OPV,Bharat_Biotech,(5,_6),1_ >= 0
Q_OPV,Bharat_Biotech,(5,_6),2_ >= 0
Q_OPV,Bharat_Biotech,(5,_6),3_ >= 0
Q_OPV,Bharat_Biotech,(5,_7),1_ >= 0
Q_OPV,Bharat_Biotech,(5,_7),2_ >= 0
Q_OPV,Bharat_Biotech,(5,_7),3_ >= 0
Q_OPV,Bharat_Biotech,(5,_8),1_ >= 0
Q_OPV,Bharat_Biotech,(5,_8),2_ >= 0
Q_OPV,Bharat_Biotech,(5,_8),3_ >= 0
Q_OPV,Bharat_Biotech,(5,_9),1_ >= 0
Q_OPV,Bharat_Biotech,(5,_9),2_ >= 0
Q_OPV,Bharat_Biotech,(5,_9),3_ >= 0
Q_OPV,Bharat_Biotech,(6,_6),1_ >= 0
Q_OPV,Bharat_Biotech,(6,_6),2_ >= 0
Q_OPV,Bharat_Biotech,(6,_6),3_ >= 0
Q_OPV,Bharat_Biotech,(6,_7),1_ >= 0
Q_OPV,Bharat_Biotech,(6,_7),2_ >= 0
Q_OPV,Bharat_Biotech,(6,_7),3_ >= 0
Q_OPV,Bharat_Biotech,(6,_8),1_ >= 0
Q_OPV,Bharat_Biotech,(6,_8),2_ >= 0
Q_OPV,Bharat_Biotech,(6,_8),3_ >= 0
Q_OPV,Bharat_Biotech,(6,_9),1_ >= 0
Q_OPV,Bharat_Biotech,(6,_9),2_ >= 0
Q_OPV,Bharat_Biotech,(6,_9),3_ >= 0
Q_OPV,Bharat_Biotech,(6,_10),1_ >= 0
Q_OPV,Bharat_Biotech,(6,_10),2_ >= 0
Q_OPV,Bharat_Biotech,(6,_10),3_ >= 0
Q_OPV,Bharat_Biotech,(7,_7),1_ >= 0
Q_OPV,Bharat_Biotech,(7,_7),2_ >= 0
Q_OPV,Bharat_Biotech,(7,_7),3_ >= 0
Q_OPV,Bharat_Biotech,(7,_8),1_ >= 0
Q_OPV,Bharat_Biotech,(7,_8),2_ >= 0
Q_OPV,Bharat_Biotech,(7,_8),3_ >= 0
Q_OPV,Bharat_Biotech,(7,_9),1_ >= 0
Q_OPV,Bharat_Biotech,(7,_9),2_ >= 0
Q_OPV,Bharat_Biotech,(7,_9),3_ >= 0
Q_OPV,Bharat_Biotech,(7,_10),1_ >= 0
Q_OPV,Bharat_Biotech,(7,_10),2_ >= 0
Q_OPV,Bharat_Biotech,(7,_10),3_ >= 0
Q_OPV,Bharat_Biotech,(8,_8),1_ >= 0
Q_OPV,Bharat_Biotech,(8,_8),2_ >= 0
Q_OPV,Bharat_Biotech,(8,_8),3_ >= 0
Q_OPV,Bharat_Biotech,(8,_9),1_ >= 0
Q_OPV,Bharat_Biotech,(8,_9),2_ >= 0
Q_OPV,Bharat_Biotech,(8,_9),3_ >= 0
Q_OPV,Bharat_Biotech,(8,_10),1_ >= 0
Q_OPV,Bharat_Biotech,(8,_10),2_ >= 0
Q_OPV,Bharat_Biotech,(8,_10),3_ >= 0
Q_OPV,Bharat_Biotech,(9,_9),1_ >= 0
Q_OPV,Bharat_Biotech,(9,_9),2_ >= 0
Q_OPV,Bharat_Biotech,(9,_9),3_ >= 0
Q_OPV,Bharat_Biotech,(9,_10),1_ >= 0
Q_OPV,Bharat_Biotech,(9,_10),2_ >= 0
Q_OPV,Bharat_Biotech,(9,_10),3_ >= 0
Q_OPV,Bharat_Biotech,(10,_10),1_ >= 0
Q_OPV,Bharat_Biotech,(10,_10),2_ >= 0
Q_OPV,Bharat_Biotech,(10,_10),3_ >= 0
Q_OPV,Haffkine_Bio,(1,_1),1_ >= 0
Q_OPV,Haffkine_Bio,(1,_1),2_ >= 0
Q_OPV,Haffkine_Bio,(1,_1),3_ >= 0
Q_OPV,Haffkine_Bio,(1,_2),1_ >= 0
Q_OPV,Haffkine_Bio,(1,_2),2_ >= 0
Q_OPV,Haffkine_Bio,(1,_2),3_ >= 0
Q_OPV,Haffkine_Bio,(1,_3),1_ >= 0
Q_OPV,Haffkine_Bio,(1,_3),2_ >= 0
Q_OPV,Haffkine_Bio,(1,_3),3_ >= 0
Q_OPV,Haffkine_Bio,(1,_4),1_ >= 0
Q_OPV,Haffkine_Bio,(1,_4),2_ >= 0
Q_OPV,Haffkine_Bio,(1,_4),3_ >= 0
Q_OPV,Haffkine_Bio,(1,_5),1_ >= 0
Q_OPV,Haffkine_Bio,(1,_5),2_ >= 0
Q_OPV,Haffkine_Bio,(1,_5),3_ >= 0
Q_OPV,Haffkine_Bio,(2,_2),1_ >= 0
Q_OPV,Haffkine_Bio,(2,_2),2_ >= 0
Q_OPV,Haffkine_Bio,(2,_2),3_ >= 0
Q_OPV,Haffkine_Bio,(2,_3),1_ >= 0
Q_OPV,Haffkine_Bio,(2,_3),2_ >= 0
Q_OPV,Haffkine_Bio,(2,_3),3_ >= 0
Q_OPV,Haffkine_Bio,(2,_4),1_ >= 0
Q_OPV,Haffkine_Bio,(2,_4),2_ >= 0
Q_OPV,Haffkine_Bio,(2,_4),3_ >= 0
Q_OPV,Haffkine_Bio,(2,_5),1_ >= 0
Q_OPV,Haffkine_Bio,(2,_5),2_ >= 0
Q_OPV,Haffkine_Bio,(2,_5),3_ >= 0
Q_OPV,Haffkine_Bio,(2,_6),1_ >= 0
Q_OPV,Haffkine_Bio,(2,_6),2_ >= 0
Q_OPV,Haffkine_Bio,(2,_6),3_ >= 0
Q_OPV,Haffkine_Bio,(3,_3),1_ >= 0
Q_OPV,Haffkine_Bio,(3,_3),2_ >= 0
Q_OPV,Haffkine_Bio,(3,_3),3_ >= 0
Q_OPV,Haffkine_Bio,(3,_4),1_ >= 0
Q_OPV,Haffkine_Bio,(3,_4),2_ >= 0
Q_OPV,Haffkine_Bio,(3,_4),3_ >= 0
Q_OPV,Haffkine_Bio,(3,_5),1_ >= 0
Q_OPV,Haffkine_Bio,(3,_5),2_ >= 0
Q_OPV,Haffkine_Bio,(3,_5),3_ >= 0
Q_OPV,Haffkine_Bio,(3,_6),1_ >= 0
Q_OPV,Haffkine_Bio,(3,_6),2_ >= 0
Q_OPV,Haffkine_Bio,(3,_6),3_ >= 0
Q_OPV,Haffkine_Bio,(3,_7),1_ >= 0
Q_OPV,Haffkine_Bio,(3,_7),2_ >= 0
Q_OPV,Haffkine_Bio,(3,_7),3_ >= 0
Q_OPV,Haffkine_Bio,(4,_4),1_ >= 0
Q_OPV,Haffkine_Bio,(4,_4),2_ >= 0
Q_OPV,Haffkine_Bio,(4,_4),3_ >= 0
Q_OPV,Haffkine_Bio,(4,_5),1_ >= 0
Q_OPV,Haffkine_Bio,(4,_5),2_ >= 0
Q_OPV,Haffkine_Bio,(4,_5),3_ >= 0
Q_OPV,Haffkine_Bio,(4,_6),1_ >= 0
Q_OPV,Haffkine_Bio,(4,_6),2_ >= 0
Q_OPV,Haffkine_Bio,(4,_6),3_ >= 0
Q_OPV,Haffkine_Bio,(4,_7),1_ >= 0
Q_OPV,Haffkine_Bio,(4,_7),2_ >= 0
Q_OPV,Haffkine_Bio,(4,_7),3_ >= 0
Q_OPV,Haffkine_Bio,(4,_8),1_ >= 0
Q_OPV,Haffkine_Bio,(4,_8),2_ >= 0
Q_OPV,Haffkine_Bio,(4,_8),3_ >= 0
Q_OPV,Haffkine_Bio,(5,_5),1_ >= 0
Q_OPV,Haffkine_Bio,(5,_5),2_ >= 0
Q_OPV,Haffkine_Bio,(5,_5),3_ >= 0
Q_OPV,Haffkine_Bio,(5,_6),1_ >= 0
Q_OPV,Haffkine_Bio,(5,_6),2_ >= 0
Q_OPV,Haffkine_Bio,(5,_6),3_ >= 0
Q_OPV,Haffkine_Bio,(5,_7),1_ >= 0
Q_OPV,Haffkine_Bio,(5,_7),2_ >= 0
Q_OPV,Haffkine_Bio,(5,_7),3_ >= 0
Q_OPV,Haffkine_Bio,(5,_8),1_ >= 0
Q_OPV,Haffkine_Bio,(5,_8),2_ >= 0
Q_OPV,Haffkine_Bio,(5,_8),3_ >= 0
Q_OPV,Haffkine_Bio,(5,_9),1_ >= 0
Q_OPV,Haffkine_Bio,(5,_9),2_ >= 0
Q_OPV,Haffkine_Bio,(5,_9),3_ >= 0
Q_OPV,Haffkine_Bio,(6,_6),1_ >= 0
Q_OPV,Haffkine_Bio,(6,_6),2_ >= 0
Q_OPV,Haffkine_Bio,(6,_6),3_ >= 0
Q_OPV,Haffkine_Bio,(6,_7),1_ >= 0
Q_OPV,Haffkine_Bio,(6,_7),2_ >= 0
Q_OPV,Haffkine_Bio,(6,_7),3_ >= 0
Q_OPV,Haffkine_Bio,(6,_8),1_ >= 0
Q_OPV,Haffkine_Bio,(6,_8),2_ >= 0
Q_OPV,Haffkine_Bio,(6,_8),3_ >= 0
Q_OPV,Haffkine_Bio,(6,_9),1_ >= 0
Q_OPV,Haffkine_Bio,(6,_9),2_ >= 0
Q_OPV,Haffkine_Bio,(6,_9),3_ >= 0
Q_OPV,Haffkine_Bio,(6,_10),1_ >= 0
Q_OPV,Haffkine_Bio,(6,_10),2_ >= 0
Q_OPV,Haffkine_Bio,(6,_10),3_ >= 0
Q_OPV,Haffkine_Bio,(7,_7),1_ >= 0
Q_OPV,Haffkine_Bio,(7,_7),2_ >= 0
Q_OPV,Haffkine_Bio,(7,_7),3_ >= 0
Q_OPV,Haffkine_Bio,(7,_8),1_ >= 0
Q_OPV,Haffkine_Bio,(7,_8),2_ >= 0
Q_OPV,Haffkine_Bio,(7,_8),3_ >= 0
Q_OPV,Haffkine_Bio,(7,_9),1_ >= 0
Q_OPV,Haffkine_Bio,(7,_9),2_ >= 0
Q_OPV,Haffkine_Bio,(7,_9),3_ >= 0
Q_OPV,Haffkine_Bio,(7,_10),1_ >= 0
Q_OPV,Haffkine_Bio,(7,_10),2_ >= 0
Q_OPV,Haffkine_Bio,(7,_10),3_ >= 0
Q_OPV,Haffkine_Bio,(8,_8),1_ >= 0
Q_OPV,Haffkine_Bio,(8,_8),2_ >= 0
Q_OPV,Haffkine_Bio,(8,_8),3_ >= 0
Q_OPV,Haffkine_Bio,(8,_9),1_ >= 0
Q_OPV,Haffkine_Bio,(8,_9),2_ >= 0
Q_OPV,Haffkine_Bio,(8,_9),3_ >= 0
Q_OPV,Haffkine_Bio,(8,_10),1_ >= 0
Q_OPV,Haffkine_Bio,(8,_10),2_ >= 0
Q_OPV,Haffkine_Bio,(8,_10),3_ >= 0
Q_OPV,Haffkine_Bio,(9,_9),1_ >= 0
Q_OPV,Haffkine_Bio,(9,_9),2_ >= 0
Q_OPV,Haffkine_Bio,(9,_9),3_ >= 0
Q_OPV,Haffkine_Bio,(9,_10),1_ >= 0
Q_OPV,Haffkine_Bio,(9,_10),2_ >= 0
Q_OPV,Haffkine_Bio,(9,_10),3_ >= 0
Q_OPV,Haffkine_Bio,(10,_10),1_ >= 0
Q_OPV,Haffkine_Bio,(10,_10),2_ >= 0
Q_OPV,Haffkine_Bio,(10,_10),3_ >= 0
Q_DT,PT_Bio,(1,_1),1_ >= 0
Q_DT,PT_Bio,(1,_1),2_ >= 0
Q_DT,PT_Bio,(1,_1),3_ >= 0
Q_DT,PT_Bio,(1,_2),1_ >= 0
Q_DT,PT_Bio,(1,_2),2_ >= 0
Q_DT,PT_Bio,(1,_2),3_ >= 0
Q_DT,PT_Bio,(1,_3),1_ >= 0
Q_DT,PT_Bio,(1,_3),2_ >= 0
Q_DT,PT_Bio,(1,_3),3_ >= 0
Q_DT,PT_Bio,(1,_4),1_ >= 0
Q_DT,PT_Bio,(1,_4),2_ >= 0
Q_DT,PT_Bio,(1,_4),3_ >= 0
Q_DT,PT_Bio,(1,_5),1_ >= 0
Q_DT,PT_Bio,(1,_5),2_ >= 0
Q_DT,PT_Bio,(1,_5),3_ >= 0
Q_DT,PT_Bio,(2,_2),1_ >= 0
Q_DT,PT_Bio,(2,_2),2_ >= 0
Q_DT,PT_Bio,(2,_2),3_ >= 0
Q_DT,PT_Bio,(2,_3),1_ >= 0
Q_DT,PT_Bio,(2,_3),2_ >= 0
Q_DT,PT_Bio,(2,_3),3_ >= 0
Q_DT,PT_Bio,(2,_4),1_ >= 0
Q_DT,PT_Bio,(2,_4),2_ >= 0
Q_DT,PT_Bio,(2,_4),3_ >= 0
Q_DT,PT_Bio,(2,_5),1_ >= 0
Q_DT,PT_Bio,(2,_5),2_ >= 0
Q_DT,PT_Bio,(2,_5),3_ >= 0
Q_DT,PT_Bio,(2,_6),1_ >= 0
Q_DT,PT_Bio,(2,_6),2_ >= 0
Q_DT,PT_Bio,(2,_6),3_ >= 0
Q_DT,PT_Bio,(3,_3),1_ >= 0
Q_DT,PT_Bio,(3,_3),2_ >= 0
Q_DT,PT_Bio,(3,_3),3_ >= 0
Q_DT,PT_Bio,(3,_4),1_ >= 0
Q_DT,PT_Bio,(3,_4),2_ >= 0
Q_DT,PT_Bio,(3,_4),3_ >= 0
Q_DT,PT_Bio,(3,_5),1_ >= 0
Q_DT,PT_Bio,(3,_5),2_ >= 0
Q_DT,PT_Bio,(3,_5),3_ >= 0
Q_DT,PT_Bio,(3,_6),1_ >= 0
Q_DT,PT_Bio,(3,_6),2_ >= 0
Q_DT,PT_Bio,(3,_6),3_ >= 0
Q_DT,PT_Bio,(3,_7),1_ >= 0
Q_DT,PT_Bio,(3,_7),2_ >= 0
Q_DT,PT_Bio,(3,_7),3_ >= 0
Q_DT,PT_Bio,(4,_4),1_ >= 0
Q_DT,PT_Bio,(4,_4),2_ >= 0
Q_DT,PT_Bio,(4,_4),3_ >= 0
Q_DT,PT_Bio,(4,_5),1_ >= 0
Q_DT,PT_Bio,(4,_5),2_ >= 0
Q_DT,PT_Bio,(4,_5),3_ >= 0
Q_DT,PT_Bio,(4,_6),1_ >= 0
Q_DT,PT_Bio,(4,_6),2_ >= 0
Q_DT,PT_Bio,(4,_6),3_ >= 0
Q_DT,PT_Bio,(4,_7),1_ >= 0
Q_DT,PT_Bio,(4,_7),2_ >= 0
Q_DT,PT_Bio,(4,_7),3_ >= 0
Q_DT,PT_Bio,(4,_8),1_ >= 0
Q_DT,PT_Bio,(4,_8),2_ >= 0
Q_DT,PT_Bio,(4,_8),3_ >= 0
Q_DT,PT_Bio,(5,_5),1_ >= 0
Q_DT,PT_Bio,(5,_5),2_ >= 0
Q_DT,PT_Bio,(5,_5),3_ >= 0
Q_DT,PT_Bio,(5,_6),1_ >= 0
Q_DT,PT_Bio,(5,_6),2_ >= 0
Q_DT,PT_Bio,(5,_6),3_ >= 0
Q_DT,PT_Bio,(5,_7),1_ >= 0
Q_DT,PT_Bio,(5,_7),2_ >= 0
Q_DT,PT_Bio,(5,_7),3_ >= 0
Q_DT,PT_Bio,(5,_8),1_ >= 0
Q_DT,PT_Bio,(5,_8),2_ >= 0
Q_DT,PT_Bio,(5,_8),3_ >= 0
Q_DT,PT_Bio,(5,_9),1_ >= 0
Q_DT,PT_Bio,(5,_9),2_ >= 0
Q_DT,PT_Bio,(5,_9),3_ >= 0
Q_DT,PT_Bio,(6,_6),1_ >= 0
Q_DT,PT_Bio,(6,_6),2_ >= 0
Q_DT,PT_Bio,(6,_6),3_ >= 0
Q_DT,PT_Bio,(6,_7),1_ >= 0
Q_DT,PT_Bio,(6,_7),2_ >= 0
Q_DT,PT_Bio,(6,_7),3_ >= 0
Q_DT,PT_Bio,(6,_8),1_ >= 0
Q_DT,PT_Bio,(6,_8),2_ >= 0
Q_DT,PT_Bio,(6,_8),3_ >= 0
Q_DT,PT_Bio,(6,_9),1_ >= 0
Q_DT,PT_Bio,(6,_9),2_ >= 0
Q_DT,PT_Bio,(6,_9),3_ >= 0
Q_DT,PT_Bio,(6,_10),1_ >= 0
Q_DT,PT_Bio,(6,_10),2_ >= 0
Q_DT,PT_Bio,(6,_10),3_ >= 0
Q_DT,PT_Bio,(7,_7),1_ >= 0
Q_DT,PT_Bio,(7,_7),2_ >= 0
Q_DT,PT_Bio,(7,_7),3_ >= 0
Q_DT,PT_Bio,(7,_8),1_ >= 0
Q_DT,PT_Bio,(7,_8),2_ >= 0
Q_DT,PT_Bio,(7,_8),3_ >= 0
Q_DT,PT_Bio,(7,_9),1_ >= 0
Q_DT,PT_Bio,(7,_9),2_ >= 0
Q_DT,PT_Bio,(7,_9),3_ >= 0
Q_DT,PT_Bio,(7,_10),1_ >= 0
Q_DT,PT_Bio,(7,_10),2_ >= 0
Q_DT,PT_Bio,(7,_10),3_ >= 0
Q_DT,PT_Bio,(8,_8),1_ >= 0
Q_DT,PT_Bio,(8,_8),2_ >= 0
Q_DT,PT_Bio,(8,_8),3_ >= 0
Q_DT,PT_Bio,(8,_9),1_ >= 0
Q_DT,PT_Bio,(8,_9),2_ >= 0
Q_DT,PT_Bio,(8,_9),3_ >= 0
Q_DT,PT_Bio,(8,_10),1_ >= 0
Q_DT,PT_Bio,(8,_10),2_ >= 0
Q_DT,PT_Bio,(8,_10),3_ >= 0
Q_DT,PT_Bio,(9,_9),1_ >= 0
Q_DT,PT_Bio,(9,_9),2_ >= 0
Q_DT,PT_Bio,(9,_9),3_ >= 0
Q_DT,PT_Bio,(9,_10),1_ >= 0
Q_DT,PT_Bio,(9,_10),2_ >= 0
Q_DT,PT_Bio,(9,_10),3_ >= 0
Q_DT,PT_Bio,(10,_10),1_ >= 0
Q_DT,PT_Bio,(10,_10),2_ >= 0
Q_DT,PT_Bio,(10,_10),3_ >= 0
Q_DT,BB_NCIPD,(1,_1),1_ >= 0
Q_DT,BB_NCIPD,(1,_1),2_ >= 0
Q_DT,BB_NCIPD,(1,_1),3_ >= 0
Q_DT,BB_NCIPD,(1,_2),1_ >= 0
Q_DT,BB_NCIPD,(1,_2),2_ >= 0
Q_DT,BB_NCIPD,(1,_2),3_ >= 0
Q_DT,BB_NCIPD,(1,_3),1_ >= 0
Q_DT,BB_NCIPD,(1,_3),2_ >= 0
Q_DT,BB_NCIPD,(1,_3),3_ >= 0
Q_DT,BB_NCIPD,(1,_4),1_ >= 0
Q_DT,BB_NCIPD,(1,_4),2_ >= 0
Q_DT,BB_NCIPD,(1,_4),3_ >= 0
Q_DT,BB_NCIPD,(1,_5),1_ >= 0
Q_DT,BB_NCIPD,(1,_5),2_ >= 0
Q_DT,BB_NCIPD,(1,_5),3_ >= 0
Q_DT,BB_NCIPD,(2,_2),1_ >= 0
Q_DT,BB_NCIPD,(2,_2),2_ >= 0
Q_DT,BB_NCIPD,(2,_2),3_ >= 0
Q_DT,BB_NCIPD,(2,_3),1_ >= 0
Q_DT,BB_NCIPD,(2,_3),2_ >= 0
Q_DT,BB_NCIPD,(2,_3),3_ >= 0
Q_DT,BB_NCIPD,(2,_4),1_ >= 0
Q_DT,BB_NCIPD,(2,_4),2_ >= 0
Q_DT,BB_NCIPD,(2,_4),3_ >= 0
Q_DT,BB_NCIPD,(2,_5),1_ >= 0
Q_DT,BB_NCIPD,(2,_5),2_ >= 0
Q_DT,BB_NCIPD,(2,_5),3_ >= 0
Q_DT,BB_NCIPD,(2,_6),1_ >= 0
Q_DT,BB_NCIPD,(2,_6),2_ >= 0
Q_DT,BB_NCIPD,(2,_6),3_ >= 0
Q_DT,BB_NCIPD,(3,_3),1_ >= 0
Q_DT,BB_NCIPD,(3,_3),2_ >= 0
Q_DT,BB_NCIPD,(3,_3),3_ >= 0
Q_DT,BB_NCIPD,(3,_4),1_ >= 0
Q_DT,BB_NCIPD,(3,_4),2_ >= 0
Q_DT,BB_NCIPD,(3,_4),3_ >= 0
Q_DT,BB_NCIPD,(3,_5),1_ >= 0
Q_DT,BB_NCIPD,(3,_5),2_ >= 0
Q_DT,BB_NCIPD,(3,_5),3_ >= 0
Q_DT,BB_NCIPD,(3,_6),1_ >= 0
Q_DT,BB_NCIPD,(3,_6),2_ >= 0
Q_DT,BB_NCIPD,(3,_6),3_ >= 0
Q_DT,BB_NCIPD,(3,_7),1_ >= 0
Q_DT,BB_NCIPD,(3,_7),2_ >= 0
Q_DT,BB_NCIPD,(3,_7),3_ >= 0
Q_DT,BB_NCIPD,(4,_4),1_ >= 0
Q_DT,BB_NCIPD,(4,_4),2_ >= 0
Q_DT,BB_NCIPD,(4,_4),3_ >= 0
Q_DT,BB_NCIPD,(4,_5),1_ >= 0
Q_DT,BB_NCIPD,(4,_5),2_ >= 0
Q_DT,BB_NCIPD,(4,_5),3_ >= 0
Q_DT,BB_NCIPD,(4,_6),1_ >= 0
Q_DT,BB_NCIPD,(4,_6),2_ >= 0
Q_DT,BB_NCIPD,(4,_6),3_ >= 0
Q_DT,BB_NCIPD,(4,_7),1_ >= 0
Q_DT,BB_NCIPD,(4,_7),2_ >= 0
Q_DT,BB_NCIPD,(4,_7),3_ >= 0
Q_DT,BB_NCIPD,(4,_8),1_ >= 0
Q_DT,BB_NCIPD,(4,_8),2_ >= 0
Q_DT,BB_NCIPD,(4,_8),3_ >= 0
Q_DT,BB_NCIPD,(5,_5),1_ >= 0
Q_DT,BB_NCIPD,(5,_5),2_ >= 0
Q_DT,BB_NCIPD,(5,_5),3_ >= 0
Q_DT,BB_NCIPD,(5,_6),1_ >= 0
Q_DT,BB_NCIPD,(5,_6),2_ >= 0
Q_DT,BB_NCIPD,(5,_6),3_ >= 0
Q_DT,BB_NCIPD,(5,_7),1_ >= 0
Q_DT,BB_NCIPD,(5,_7),2_ >= 0
Q_DT,BB_NCIPD,(5,_7),3_ >= 0
Q_DT,BB_NCIPD,(5,_8),1_ >= 0
Q_DT,BB_NCIPD,(5,_8),2_ >= 0
Q_DT,BB_NCIPD,(5,_8),3_ >= 0
Q_DT,BB_NCIPD,(5,_9),1_ >= 0
Q_DT,BB_NCIPD,(5,_9),2_ >= 0
Q_DT,BB_NCIPD,(5,_9),3_ >= 0
Q_DT,BB_NCIPD,(6,_6),1_ >= 0
Q_DT,BB_NCIPD,(6,_6),2_ >= 0
Q_DT,BB_NCIPD,(6,_6),3_ >= 0
Q_DT,BB_NCIPD,(6,_7),1_ >= 0
Q_DT,BB_NCIPD,(6,_7),2_ >= 0
Q_DT,BB_NCIPD,(6,_7),3_ >= 0
Q_DT,BB_NCIPD,(6,_8),1_ >= 0
Q_DT,BB_NCIPD,(6,_8),2_ >= 0
Q_DT,BB_NCIPD,(6,_8),3_ >= 0
Q_DT,BB_NCIPD,(6,_9),1_ >= 0
Q_DT,BB_NCIPD,(6,_9),2_ >= 0
Q_DT,BB_NCIPD,(6,_9),3_ >= 0
Q_DT,BB_NCIPD,(6,_10),1_ >= 0
Q_DT,BB_NCIPD,(6,_10),2_ >= 0
Q_DT,BB_NCIPD,(6,_10),3_ >= 0
Q_DT,BB_NCIPD,(7,_7),1_ >= 0
Q_DT,BB_NCIPD,(7,_7),2_ >= 0
Q_DT,BB_NCIPD,(7,_7),3_ >= 0
Q_DT,BB_NCIPD,(7,_8),1_ >= 0
Q_DT,BB_NCIPD,(7,_8),2_ >= 0
Q_DT,BB_NCIPD,(7,_8),3_ >= 0
Q_DT,BB_NCIPD,(7,_9),1_ >= 0
Q_DT,BB_NCIPD,(7,_9),2_ >= 0
Q_DT,BB_NCIPD,(7,_9),3_ >= 0
Q_DT,BB_NCIPD,(7,_10),1_ >= 0
Q_DT,BB_NCIPD,(7,_10),2_ >= 0
Q_DT,BB_NCIPD,(7,_10),3_ >= 0
Q_DT,BB_NCIPD,(8,_8),1_ >= 0
Q_DT,BB_NCIPD,(8,_8),2_ >= 0
Q_DT,BB_NCIPD,(8,_8),3_ >= 0
Q_DT,BB_NCIPD,(8,_9),1_ >= 0
Q_DT,BB_NCIPD,(8,_9),2_ >= 0
Q_DT,BB_NCIPD,(8,_9),3_ >= 0
Q_DT,BB_NCIPD,(8,_10),1_ >= 0
Q_DT,BB_NCIPD,(8,_10),2_ >= 0
Q_DT,BB_NCIPD,(8,_10),3_ >= 0
Q_DT,BB_NCIPD,(9,_9),1_ >= 0
Q_DT,BB_NCIPD,(9,_9),2_ >= 0
Q_DT,BB_NCIPD,(9,_9),3_ >= 0
Q_DT,BB_NCIPD,(9,_10),1_ >= 0
Q_DT,BB_NCIPD,(9,_10),2_ >= 0
Q_DT,BB_NCIPD,(9,_10),3_ >= 0
Q_DT,BB_NCIPD,(10,_10),1_ >= 0
Q_DT,BB_NCIPD,(10,_10),2_ >= 0
Q_DT,BB_NCIPD,(10,_10),3_ >= 0
Q_Td,Serum_Institute,(1,_1),1_ >= 0
Q_Td,Serum_Institute,(1,_1),2_ >= 0
Q_Td,Serum_Institute,(1,_1),3_ >= 0
Q_Td,Serum_Institute,(1,_2),1_ >= 0
Q_Td,Serum_Institute,(1,_2),2_ >= 0
Q_Td,Serum_Institute,(1,_2),3_ >= 0
Q_Td,Serum_Institute,(1,_3),1_ >= 0
Q_Td,Serum_Institute,(1,_3),2_ >= 0
Q_Td,Serum_Institute,(1,_3),3_ >= 0
Q_Td,Serum_Institute,(1,_4),1_ >= 0
Q_Td,Serum_Institute,(1,_4),2_ >= 0
Q_Td,Serum_Institute,(1,_4),3_ >= 0
Q_Td,Serum_Institute,(1,_5),1_ >= 0
Q_Td,Serum_Institute,(1,_5),2_ >= 0
Q_Td,Serum_Institute,(1,_5),3_ >= 0
Q_Td,Serum_Institute,(2,_2),1_ >= 0
Q_Td,Serum_Institute,(2,_2),2_ >= 0
Q_Td,Serum_Institute,(2,_2),3_ >= 0
Q_Td,Serum_Institute,(2,_3),1_ >= 0
Q_Td,Serum_Institute,(2,_3),2_ >= 0
Q_Td,Serum_Institute,(2,_3),3_ >= 0
Q_Td,Serum_Institute,(2,_4),1_ >= 0
Q_Td,Serum_Institute,(2,_4),2_ >= 0
Q_Td,Serum_Institute,(2,_4),3_ >= 0
Q_Td,Serum_Institute,(2,_5),1_ >= 0
Q_Td,Serum_Institute,(2,_5),2_ >= 0
Q_Td,Serum_Institute,(2,_5),3_ >= 0
Q_Td,Serum_Institute,(2,_6),1_ >= 0
Q_Td,Serum_Institute,(2,_6),2_ >= 0
Q_Td,Serum_Institute,(2,_6),3_ >= 0
Q_Td,Serum_Institute,(3,_3),1_ >= 0
Q_Td,Serum_Institute,(3,_3),2_ >= 0
Q_Td,Serum_Institute,(3,_3),3_ >= 0
Q_Td,Serum_Institute,(3,_4),1_ >= 0
Q_Td,Serum_Institute,(3,_4),2_ >= 0
Q_Td,Serum_Institute,(3,_4),3_ >= 0
Q_Td,Serum_Institute,(3,_5),1_ >= 0
Q_Td,Serum_Institute,(3,_5),2_ >= 0
Q_Td,Serum_Institute,(3,_5),3_ >= 0
Q_Td,Serum_Institute,(3,_6),1_ >= 0
Q_Td,Serum_Institute,(3,_6),2_ >= 0
Q_Td,Serum_Institute,(3,_6),3_ >= 0
Q_Td,Serum_Institute,(3,_7),1_ >= 0
Q_Td,Serum_Institute,(3,_7),2_ >= 0
Q_Td,Serum_Institute,(3,_7),3_ >= 0
Q_Td,Serum_Institute,(4,_4),1_ >= 0
Q_Td,Serum_Institute,(4,_4),2_ >= 0
Q_Td,Serum_Institute,(4,_4),3_ >= 0
Q_Td,Serum_Institute,(4,_5),1_ >= 0
Q_Td,Serum_Institute,(4,_5),2_ >= 0
Q_Td,Serum_Institute,(4,_5),3_ >= 0
Q_Td,Serum_Institute,(4,_6),1_ >= 0
Q_Td,Serum_Institute,(4,_6),2_ >= 0
Q_Td,Serum_Institute,(4,_6),3_ >= 0
Q_Td,Serum_Institute,(4,_7),1_ >= 0
Q_Td,Serum_Institute,(4,_7),2_ >= 0
Q_Td,Serum_Institute,(4,_7),3_ >= 0
Q_Td,Serum_Institute,(4,_8),1_ >= 0
Q_Td,Serum_Institute,(4,_8),2_ >= 0
Q_Td,Serum_Institute,(4,_8),3_ >= 0
Q_Td,Serum_Institute,(5,_5),1_ >= 0
Q_Td,Serum_Institute,(5,_5),2_ >= 0
Q_Td,Serum_Institute,(5,_5),3_ >= 0
Q_Td,Serum_Institute,(5,_6),1_ >= 0
Q_Td,Serum_Institute,(5,_6),2_ >= 0
Q_Td,Serum_Institute,(5,_6),3_ >= 0
Q_Td,Serum_Institute,(5,_7),1_ >= 0
Q_Td,Serum_Institute,(5,_7),2_ >= 0
Q_Td,Serum_Institute,(5,_7),3_ >= 0
Q_Td,Serum_Institute,(5,_8),1_ >= 0
Q_Td,Serum_Institute,(5,_8),2_ >= 0
Q_Td,Serum_Institute,(5,_8),3_ >= 0
Q_Td,Serum_Institute,(5,_9),1_ >= 0
Q_Td,Serum_Institute,(5,_9),2_ >= 0
Q_Td,Serum_Institute,(5,_9),3_ >= 0
Q_Td,Serum_Institute,(6,_6),1_ >= 0
Q_Td,Serum_Institute,(6,_6),2_ >= 0
Q_Td,Serum_Institute,(6,_6),3_ >= 0
Q_Td,Serum_Institute,(6,_7),1_ >= 0
Q_Td,Serum_Institute,(6,_7),2_ >= 0
Q_Td,Serum_Institute,(6,_7),3_ >= 0
Q_Td,Serum_Institute,(6,_8),1_ >= 0
Q_Td,Serum_Institute,(6,_8),2_ >= 0
Q_Td,Serum_Institute,(6,_8),3_ >= 0
Q_Td,Serum_Institute,(6,_9),1_ >= 0
Q_Td,Serum_Institute,(6,_9),2_ >= 0
Q_Td,Serum_Institute,(6,_9),3_ >= 0
Q_Td,Serum_Institute,(6,_10),1_ >= 0
Q_Td,Serum_Institute,(6,_10),2_ >= 0
Q_Td,Serum_Institute,(6,_10),3_ >= 0
Q_Td,Serum_Institute,(7,_7),1_ >= 0
Q_Td,Serum_Institute,(7,_7),2_ >= 0
Q_Td,Serum_Institute,(7,_7),3_ >= 0
Q_Td,Serum_Institute,(7,_8),1_ >= 0
Q_Td,Serum_Institute,(7,_8),2_ >= 0
Q_Td,Serum_Institute,(7,_8),3_ >= 0
Q_Td,Serum_Institute,(7,_9),1_ >= 0
Q_Td,Serum_Institute,(7,_9),2_ >= 0
Q_Td,Serum_Institute,(7,_9),3_ >= 0
Q_Td,Serum_Institute,(7,_10),1_ >= 0
Q_Td,Serum_Institute,(7,_10),2_ >= 0
Q_Td,Serum_Institute,(7,_10),3_ >= 0
Q_Td,Serum_Institute,(8,_8),1_ >= 0
Q_Td,Serum_Institute,(8,_8),2_ >= 0
Q_Td,Serum_Institute,(8,_8),3_ >= 0
Q_Td,Serum_Institute,(8,_9),1_ >= 0
Q_Td,Serum_Institute,(8,_9),2_ >= 0
Q_Td,Serum_Institute,(8,_9),3_ >= 0
Q_Td,Serum_Institute,(8,_10),1_ >= 0
Q_Td,Serum_Institute,(8,_10),2_ >= 0
Q_Td,Serum_Institute,(8,_10),3_ >= 0
Q_Td,Serum_Institute,(9,_9),1_ >= 0
Q_Td,Serum_Institute,(9,_9),2_ >= 0
Q_Td,Serum_Institute,(9,_9),3_ >= 0
Q_Td,Serum_Institute,(9,_10),1_ >= 0
Q_Td,Serum_Institute,(9,_10),2_ >= 0
Q_Td,Serum_Institute,(9,_10),3_ >= 0
Q_Td,Serum_Institute,(10,_10),1_ >= 0
Q_Td,Serum_Institute,(10,_10),2_ >= 0
Q_Td,Serum_Institute,(10,_10),3_ >= 0
Q_Td,PT_Bio,(1,_1),1_ >= 0
Q_Td,PT_Bio,(1,_1),2_ >= 0
Q_Td,PT_Bio,(1,_1),3_ >= 0
Q_Td,PT_Bio,(1,_2),1_ >= 0
Q_Td,PT_Bio,(1,_2),2_ >= 0
Q_Td,PT_Bio,(1,_2),3_ >= 0
Q_Td,PT_Bio,(1,_3),1_ >= 0
Q_Td,PT_Bio,(1,_3),2_ >= 0
Q_Td,PT_Bio,(1,_3),3_ >= 0
Q_Td,PT_Bio,(1,_4),1_ >= 0
Q_Td,PT_Bio,(1,_4),2_ >= 0
Q_Td,PT_Bio,(1,_4),3_ >= 0
Q_Td,PT_Bio,(1,_5),1_ >= 0
Q_Td,PT_Bio,(1,_5),2_ >= 0
Q_Td,PT_Bio,(1,_5),3_ >= 0
Q_Td,PT_Bio,(2,_2),1_ >= 0
Q_Td,PT_Bio,(2,_2),2_ >= 0
Q_Td,PT_Bio,(2,_2),3_ >= 0
Q_Td,PT_Bio,(2,_3),1_ >= 0
Q_Td,PT_Bio,(2,_3),2_ >= 0
Q_Td,PT_Bio,(2,_3),3_ >= 0
Q_Td,PT_Bio,(2,_4),1_ >= 0
Q_Td,PT_Bio,(2,_4),2_ >= 0
Q_Td,PT_Bio,(2,_4),3_ >= 0
Q_Td,PT_Bio,(2,_5),1_ >= 0
Q_Td,PT_Bio,(2,_5),2_ >= 0
Q_Td,PT_Bio,(2,_5),3_ >= 0
Q_Td,PT_Bio,(2,_6),1_ >= 0
Q_Td,PT_Bio,(2,_6),2_ >= 0
Q_Td,PT_Bio,(2,_6),3_ >= 0
Q_Td,PT_Bio,(3,_3),1_ >= 0
Q_Td,PT_Bio,(3,_3),2_ >= 0
Q_Td,PT_Bio,(3,_3),3_ >= 0
Q_Td,PT_Bio,(3,_4),1_ >= 0
Q_Td,PT_Bio,(3,_4),2_ >= 0
Q_Td,PT_Bio,(3,_4),3_ >= 0
Q_Td,PT_Bio,(3,_5),1_ >= 0
Q_Td,PT_Bio,(3,_5),2_ >= 0
Q_Td,PT_Bio,(3,_5),3_ >= 0
Q_Td,PT_Bio,(3,_6),1_ >= 0
Q_Td,PT_Bio,(3,_6),2_ >= 0
Q_Td,PT_Bio,(3,_6),3_ >= 0
Q_Td,PT_Bio,(3,_7),1_ >= 0
Q_Td,PT_Bio,(3,_7),2_ >= 0
Q_Td,PT_Bio,(3,_7),3_ >= 0
Q_Td,PT_Bio,(4,_4),1_ >= 0
Q_Td,PT_Bio,(4,_4),2_ >= 0
Q_Td,PT_Bio,(4,_4),3_ >= 0
Q_Td,PT_Bio,(4,_5),1_ >= 0
Q_Td,PT_Bio,(4,_5),2_ >= 0
Q_Td,PT_Bio,(4,_5),3_ >= 0
Q_Td,PT_Bio,(4,_6),1_ >= 0
Q_Td,PT_Bio,(4,_6),2_ >= 0
Q_Td,PT_Bio,(4,_6),3_ >= 0
Q_Td,PT_Bio,(4,_7),1_ >= 0
Q_Td,PT_Bio,(4,_7),2_ >= 0
Q_Td,PT_Bio,(4,_7),3_ >= 0
Q_Td,PT_Bio,(4,_8),1_ >= 0
Q_Td,PT_Bio,(4,_8),2_ >= 0
Q_Td,PT_Bio,(4,_8),3_ >= 0
Q_Td,PT_Bio,(5,_5),1_ >= 0
Q_Td,PT_Bio,(5,_5),2_ >= 0
Q_Td,PT_Bio,(5,_5),3_ >= 0
Q_Td,PT_Bio,(5,_6),1_ >= 0
Q_Td,PT_Bio,(5,_6),2_ >= 0
Q_Td,PT_Bio,(5,_6),3_ >= 0
Q_Td,PT_Bio,(5,_7),1_ >= 0
Q_Td,PT_Bio,(5,_7),2_ >= 0
Q_Td,PT_Bio,(5,_7),3_ >= 0
Q_Td,PT_Bio,(5,_8),1_ >= 0
Q_Td,PT_Bio,(5,_8),2_ >= 0
Q_Td,PT_Bio,(5,_8),3_ >= 0
Q_Td,PT_Bio,(5,_9),1_ >= 0
Q_Td,PT_Bio,(5,_9),2_ >= 0
Q_Td,PT_Bio,(5,_9),3_ >= 0
Q_Td,PT_Bio,(6,_6),1_ >= 0
Q_Td,PT_Bio,(6,_6),2_ >= 0
Q_Td,PT_Bio,(6,_6),3_ >= 0
Q_Td,PT_Bio,(6,_7),1_ >= 0
Q_Td,PT_Bio,(6,_7),2_ >= 0
Q_Td,PT_Bio,(6,_7),3_ >= 0
Q_Td,PT_Bio,(6,_8),1_ >= 0
Q_Td,PT_Bio,(6,_8),2_ >= 0
Q_Td,PT_Bio,(6,_8),3_ >= 0
Q_Td,PT_Bio,(6,_9),1_ >= 0
Q_Td,PT_Bio,(6,_9),2_ >= 0
Q_Td,PT_Bio,(6,_9),3_ >= 0
Q_Td,PT_Bio,(6,_10),1_ >= 0
Q_Td,PT_Bio,(6,_10),2_ >= 0
Q_Td,PT_Bio,(6,_10),3_ >= 0
Q_Td,PT_Bio,(7,_7),1_ >= 0
Q_Td,PT_Bio,(7,_7),2_ >= 0
Q_Td,PT_Bio,(7,_7),3_ >= 0
Q_Td,PT_Bio,(7,_8),1_ >= 0
Q_Td,PT_Bio,(7,_8),2_ >= 0
Q_Td,PT_Bio,(7,_8),3_ >= 0
Q_Td,PT_Bio,(7,_9),1_ >= 0
Q_Td,PT_Bio,(7,_9),2_ >= 0
Q_Td,PT_Bio,(7,_9),3_ >= 0
Q_Td,PT_Bio,(7,_10),1_ >= 0
Q_Td,PT_Bio,(7,_10),2_ >= 0
Q_Td,PT_Bio,(7,_10),3_ >= 0
Q_Td,PT_Bio,(8,_8),1_ >= 0
Q_Td,PT_Bio,(8,_8),2_ >= 0
Q_Td,PT_Bio,(8,_8),3_ >= 0
Q_Td,PT_Bio,(8,_9),1_ >= 0
Q_Td,PT_Bio,(8,_9),2_ >= 0
Q_Td,PT_Bio,(8,_9),3_ >= 0
Q_Td,PT_Bio,(8,_10),1_ >= 0
Q_Td,PT_Bio,(8,_10),2_ >= 0
Q_Td,PT_Bio,(8,_10),3_ >= 0
Q_Td,PT_Bio,(9,_9),1_ >= 0
Q_Td,PT_Bio,(9,_9),2_ >= 0
Q_Td,PT_Bio,(9,_9),3_ >= 0
Q_Td,PT_Bio,(9,_10),1_ >= 0
Q_Td,PT_Bio,(9,_10),2_ >= 0
Q_Td,PT_Bio,(9,_10),3_ >= 0
Q_Td,PT_Bio,(10,_10),1_ >= 0
Q_Td,PT_Bio,(10,_10),2_ >= 0
Q_Td,PT_Bio,(10,_10),3_ >= 0
Q_Td,BB_NCIPD,(1,_1),1_ >= 0
Q_Td,BB_NCIPD,(1,_1),2_ >= 0
Q_Td,BB_NCIPD,(1,_1),3_ >= 0
Q_Td,BB_NCIPD,(1,_2),1_ >= 0
Q_Td,BB_NCIPD,(1,_2),2_ >= 0
Q_Td,BB_NCIPD,(1,_2),3_ >= 0
Q_Td,BB_NCIPD,(1,_3),1_ >= 0
Q_Td,BB_NCIPD,(1,_3),2_ >= 0
Q_Td,BB_NCIPD,(1,_3),3_ >= 0
Q_Td,BB_NCIPD,(1,_4),1_ >= 0
Q_Td,BB_NCIPD,(1,_4),2_ >= 0
Q_Td,BB_NCIPD,(1,_4),3_ >= 0
Q_Td,BB_NCIPD,(1,_5),1_ >= 0
Q_Td,BB_NCIPD,(1,_5),2_ >= 0
Q_Td,BB_NCIPD,(1,_5),3_ >= 0
Q_Td,BB_NCIPD,(2,_2),1_ >= 0
Q_Td,BB_NCIPD,(2,_2),2_ >= 0
Q_Td,BB_NCIPD,(2,_2),3_ >= 0
Q_Td,BB_NCIPD,(2,_3),1_ >= 0
Q_Td,BB_NCIPD,(2,_3),2_ >= 0
Q_Td,BB_NCIPD,(2,_3),3_ >= 0
Q_Td,BB_NCIPD,(2,_4),1_ >= 0
Q_Td,BB_NCIPD,(2,_4),2_ >= 0
Q_Td,BB_NCIPD,(2,_4),3_ >= 0
Q_Td,BB_NCIPD,(2,_5),1_ >= 0
Q_Td,BB_NCIPD,(2,_5),2_ >= 0
Q_Td,BB_NCIPD,(2,_5),3_ >= 0
Q_Td,BB_NCIPD,(2,_6),1_ >= 0
Q_Td,BB_NCIPD,(2,_6),2_ >= 0
Q_Td,BB_NCIPD,(2,_6),3_ >= 0
Q_Td,BB_NCIPD,(3,_3),1_ >= 0
Q_Td,BB_NCIPD,(3,_3),2_ >= 0
Q_Td,BB_NCIPD,(3,_3),3_ >= 0
Q_Td,BB_NCIPD,(3,_4),1_ >= 0
Q_Td,BB_NCIPD,(3,_4),2_ >= 0
Q_Td,BB_NCIPD,(3,_4),3_ >= 0
Q_Td,BB_NCIPD,(3,_5),1_ >= 0
Q_Td,BB_NCIPD,(3,_5),2_ >= 0
Q_Td,BB_NCIPD,(3,_5),3_ >= 0
Q_Td,BB_NCIPD,(3,_6),1_ >= 0
Q_Td,BB_NCIPD,(3,_6),2_ >= 0
Q_Td,BB_NCIPD,(3,_6),3_ >= 0
Q_Td,BB_NCIPD,(3,_7),1_ >= 0
Q_Td,BB_NCIPD,(3,_7),2_ >= 0
Q_Td,BB_NCIPD,(3,_7),3_ >= 0
Q_Td,BB_NCIPD,(4,_4),1_ >= 0
Q_Td,BB_NCIPD,(4,_4),2_ >= 0
Q_Td,BB_NCIPD,(4,_4),3_ >= 0
Q_Td,BB_NCIPD,(4,_5),1_ >= 0
Q_Td,BB_NCIPD,(4,_5),2_ >= 0
Q_Td,BB_NCIPD,(4,_5),3_ >= 0
Q_Td,BB_NCIPD,(4,_6),1_ >= 0
Q_Td,BB_NCIPD,(4,_6),2_ >= 0
Q_Td,BB_NCIPD,(4,_6),3_ >= 0
Q_Td,BB_NCIPD,(4,_7),1_ >= 0
Q_Td,BB_NCIPD,(4,_7),2_ >= 0
Q_Td,BB_NCIPD,(4,_7),3_ >= 0
Q_Td,BB_NCIPD,(4,_8),1_ >= 0
Q_Td,BB_NCIPD,(4,_8),2_ >= 0
Q_Td,BB_NCIPD,(4,_8),3_ >= 0
Q_Td,BB_NCIPD,(5,_5),1_ >= 0
Q_Td,BB_NCIPD,(5,_5),2_ >= 0
Q_Td,BB_NCIPD,(5,_5),3_ >= 0
Q_Td,BB_NCIPD,(5,_6),1_ >= 0
Q_Td,BB_NCIPD,(5,_6),2_ >= 0
Q_Td,BB_NCIPD,(5,_6),3_ >= 0
Q_Td,BB_NCIPD,(5,_7),1_ >= 0
Q_Td,BB_NCIPD,(5,_7),2_ >= 0
Q_Td,BB_NCIPD,(5,_7),3_ >= 0
Q_Td,BB_NCIPD,(5,_8),1_ >= 0
Q_Td,BB_NCIPD,(5,_8),2_ >= 0
Q_Td,BB_NCIPD,(5,_8),3_ >= 0
Q_Td,BB_NCIPD,(5,_9),1_ >= 0
Q_Td,BB_NCIPD,(5,_9),2_ >= 0
Q_Td,BB_NCIPD,(5,_9),3_ >= 0
Q_Td,BB_NCIPD,(6,_6),1_ >= 0
Q_Td,BB_NCIPD,(6,_6),2_ >= 0
Q_Td,BB_NCIPD,(6,_6),3_ >= 0
Q_Td,BB_NCIPD,(6,_7),1_ >= 0
Q_Td,BB_NCIPD,(6,_7),2_ >= 0
Q_Td,BB_NCIPD,(6,_7),3_ >= 0
Q_Td,BB_NCIPD,(6,_8),1_ >= 0
Q_Td,BB_NCIPD,(6,_8),2_ >= 0
Q_Td,BB_NCIPD,(6,_8),3_ >= 0
Q_Td,BB_NCIPD,(6,_9),1_ >= 0
Q_Td,BB_NCIPD,(6,_9),2_ >= 0
Q_Td,BB_NCIPD,(6,_9),3_ >= 0
Q_Td,BB_NCIPD,(6,_10),1_ >= 0
Q_Td,BB_NCIPD,(6,_10),2_ >= 0
Q_Td,BB_NCIPD,(6,_10),3_ >= 0
Q_Td,BB_NCIPD,(7,_7),1_ >= 0
Q_Td,BB_NCIPD,(7,_7),2_ >= 0
Q_Td,BB_NCIPD,(7,_7),3_ >= 0
Q_Td,BB_NCIPD,(7,_8),1_ >= 0
Q_Td,BB_NCIPD,(7,_8),2_ >= 0
Q_Td,BB_NCIPD,(7,_8),3_ >= 0
Q_Td,BB_NCIPD,(7,_9),1_ >= 0
Q_Td,BB_NCIPD,(7,_9),2_ >= 0
Q_Td,BB_NCIPD,(7,_9),3_ >= 0
Q_Td,BB_NCIPD,(7,_10),1_ >= 0
Q_Td,BB_NCIPD,(7,_10),2_ >= 0
Q_Td,BB_NCIPD,(7,_10),3_ >= 0
Q_Td,BB_NCIPD,(8,_8),1_ >= 0
Q_Td,BB_NCIPD,(8,_8),2_ >= 0
Q_Td,BB_NCIPD,(8,_8),3_ >= 0
Q_Td,BB_NCIPD,(8,_9),1_ >= 0
Q_Td,BB_NCIPD,(8,_9),2_ >= 0
Q_Td,BB_NCIPD,(8,_9),3_ >= 0
Q_Td,BB_NCIPD,(8,_10),1_ >= 0
Q_Td,BB_NCIPD,(8,_10),2_ >= 0
Q_Td,BB_NCIPD,(8,_10),3_ >= 0
Q_Td,BB_NCIPD,(9,_9),1_ >= 0
Q_Td,BB_NCIPD,(9,_9),2_ >= 0
Q_Td,BB_NCIPD,(9,_9),3_ >= 0
Q_Td,BB_NCIPD,(9,_10),1_ >= 0
Q_Td,BB_NCIPD,(9,_10),2_ >= 0
Q_Td,BB_NCIPD,(9,_10),3_ >= 0
Q_Td,BB_NCIPD,(10,_10),1_ >= 0
Q_Td,BB_NCIPD,(10,_10),2_ >= 0
Q_Td,BB_NCIPD,(10,_10),3_ >= 0
Q_Td,Biological_E,(1,_1),1_ >= 0
Q_Td,Biological_E,(1,_1),2_ >= 0
Q_Td,Biological_E,(1,_1),3_ >= 0
Q_Td,Biological_E,(1,_2),1_ >= 0
Q_Td,Biological_E,(1,_2),2_ >= 0
Q_Td,Biological_E,(1,_2),3_ >= 0
Q_Td,Biological_E,(1,_3),1_ >= 0
Q_Td,Biological_E,(1,_3),2_ >= 0
Q_Td,Biological_E,(1,_3),3_ >= 0
Q_Td,Biological_E,(1,_4),1_ >= 0
Q_Td,Biological_E,(1,_4),2_ >= 0
Q_Td,Biological_E,(1,_4),3_ >= 0
Q_Td,Biological_E,(1,_5),1_ >= 0
Q_Td,Biological_E,(1,_5),2_ >= 0
Q_Td,Biological_E,(1,_5),3_ >= 0
Q_Td,Biological_E,(2,_2),1_ >= 0
Q_Td,Biological_E,(2,_2),2_ >= 0
Q_Td,Biological_E,(2,_2),3_ >= 0
Q_Td,Biological_E,(2,_3),1_ >= 0
Q_Td,Biological_E,(2,_3),2_ >= 0
Q_Td,Biological_E,(2,_3),3_ >= 0
Q_Td,Biological_E,(2,_4),1_ >= 0
Q_Td,Biological_E,(2,_4),2_ >= 0
Q_Td,Biological_E,(2,_4),3_ >= 0
Q_Td,Biological_E,(2,_5),1_ >= 0
Q_Td,Biological_E,(2,_5),2_ >= 0
Q_Td,Biological_E,(2,_5),3_ >= 0
Q_Td,Biological_E,(2,_6),1_ >= 0
Q_Td,Biological_E,(2,_6),2_ >= 0
Q_Td,Biological_E,(2,_6),3_ >= 0
Q_Td,Biological_E,(3,_3),1_ >= 0
Q_Td,Biological_E,(3,_3),2_ >= 0
Q_Td,Biological_E,(3,_3),3_ >= 0
Q_Td,Biological_E,(3,_4),1_ >= 0
Q_Td,Biological_E,(3,_4),2_ >= 0
Q_Td,Biological_E,(3,_4),3_ >= 0
Q_Td,Biological_E,(3,_5),1_ >= 0
Q_Td,Biological_E,(3,_5),2_ >= 0
Q_Td,Biological_E,(3,_5),3_ >= 0
Q_Td,Biological_E,(3,_6),1_ >= 0
Q_Td,Biological_E,(3,_6),2_ >= 0
Q_Td,Biological_E,(3,_6),3_ >= 0
Q_Td,Biological_E,(3,_7),1_ >= 0
Q_Td,Biological_E,(3,_7),2_ >= 0
Q_Td,Biological_E,(3,_7),3_ >= 0
Q_Td,Biological_E,(4,_4),1_ >= 0
Q_Td,Biological_E,(4,_4),2_ >= 0
Q_Td,Biological_E,(4,_4),3_ >= 0
Q_Td,Biological_E,(4,_5),1_ >= 0
Q_Td,Biological_E,(4,_5),2_ >= 0
Q_Td,Biological_E,(4,_5),3_ >= 0
Q_Td,Biological_E,(4,_6),1_ >= 0
Q_Td,Biological_E,(4,_6),2_ >= 0
Q_Td,Biological_E,(4,_6),3_ >= 0
Q_Td,Biological_E,(4,_7),1_ >= 0
Q_Td,Biological_E,(4,_7),2_ >= 0
Q_Td,Biological_E,(4,_7),3_ >= 0
Q_Td,Biological_E,(4,_8),1_ >= 0
Q_Td,Biological_E,(4,_8),2_ >= 0
Q_Td,Biological_E,(4,_8),3_ >= 0
Q_Td,Biological_E,(5,_5),1_ >= 0
Q_Td,Biological_E,(5,_5),2_ >= 0
Q_Td,Biological_E,(5,_5),3_ >= 0
Q_Td,Biological_E,(5,_6),1_ >= 0
Q_Td,Biological_E,(5,_6),2_ >= 0
Q_Td,Biological_E,(5,_6),3_ >= 0
Q_Td,Biological_E,(5,_7),1_ >= 0
Q_Td,Biological_E,(5,_7),2_ >= 0
Q_Td,Biological_E,(5,_7),3_ >= 0
Q_Td,Biological_E,(5,_8),1_ >= 0
Q_Td,Biological_E,(5,_8),2_ >= 0
Q_Td,Biological_E,(5,_8),3_ >= 0
Q_Td,Biological_E,(5,_9),1_ >= 0
Q_Td,Biological_E,(5,_9),2_ >= 0
Q_Td,Biological_E,(5,_9),3_ >= 0
Q_Td,Biological_E,(6,_6),1_ >= 0
Q_Td,Biological_E,(6,_6),2_ >= 0
Q_Td,Biological_E,(6,_6),3_ >= 0
Q_Td,Biological_E,(6,_7),1_ >= 0
Q_Td,Biological_E,(6,_7),2_ >= 0
Q_Td,Biological_E,(6,_7),3_ >= 0
Q_Td,Biological_E,(6,_8),1_ >= 0
Q_Td,Biological_E,(6,_8),2_ >= 0
Q_Td,Biological_E,(6,_8),3_ >= 0
Q_Td,Biological_E,(6,_9),1_ >= 0
Q_Td,Biological_E,(6,_9),2_ >= 0
Q_Td,Biological_E,(6,_9),3_ >= 0
Q_Td,Biological_E,(6,_10),1_ >= 0
Q_Td,Biological_E,(6,_10),2_ >= 0
Q_Td,Biological_E,(6,_10),3_ >= 0
Q_Td,Biological_E,(7,_7),1_ >= 0
Q_Td,Biological_E,(7,_7),2_ >= 0
Q_Td,Biological_E,(7,_7),3_ >= 0
Q_Td,Biological_E,(7,_8),1_ >= 0
Q_Td,Biological_E,(7,_8),2_ >= 0
Q_Td,Biological_E,(7,_8),3_ >= 0
Q_Td,Biological_E,(7,_9),1_ >= 0
Q_Td,Biological_E,(7,_9),2_ >= 0
Q_Td,Biological_E,(7,_9),3_ >= 0
Q_Td,Biological_E,(7,_10),1_ >= 0
Q_Td,Biological_E,(7,_10),2_ >= 0
Q_Td,Biological_E,(7,_10),3_ >= 0
Q_Td,Biological_E,(8,_8),1_ >= 0
Q_Td,Biological_E,(8,_8),2_ >= 0
Q_Td,Biological_E,(8,_8),3_ >= 0
Q_Td,Biological_E,(8,_9),1_ >= 0
Q_Td,Biological_E,(8,_9),2_ >= 0
Q_Td,Biological_E,(8,_9),3_ >= 0
Q_Td,Biological_E,(8,_10),1_ >= 0
Q_Td,Biological_E,(8,_10),2_ >= 0
Q_Td,Biological_E,(8,_10),3_ >= 0
Q_Td,Biological_E,(9,_9),1_ >= 0
Q_Td,Biological_E,(9,_9),2_ >= 0
Q_Td,Biological_E,(9,_9),3_ >= 0
Q_Td,Biological_E,(9,_10),1_ >= 0
Q_Td,Biological_E,(9,_10),2_ >= 0
Q_Td,Biological_E,(9,_10),3_ >= 0
Q_Td,Biological_E,(10,_10),1_ >= 0
Q_Td,Biological_E,(10,_10),2_ >= 0
Q_Td,Biological_E,(10,_10),3_ >= 0
Q_DTwP,Serum_Institute,(1,_1),1_ >= 0
Q_DTwP,Serum_Institute,(1,_1),2_ >= 0
Q_DTwP,Serum_Institute,(1,_1),3_ >= 0
Q_DTwP,Serum_Institute,(1,_2),1_ >= 0
Q_DTwP,Serum_Institute,(1,_2),2_ >= 0
Q_DTwP,Serum_Institute,(1,_2),3_ >= 0
Q_DTwP,Serum_Institute,(1,_3),1_ >= 0
Q_DTwP,Serum_Institute,(1,_3),2_ >= 0
Q_DTwP,Serum_Institute,(1,_3),3_ >= 0
Q_DTwP,Serum_Institute,(1,_4),1_ >= 0
Q_DTwP,Serum_Institute,(1,_4),2_ >= 0
Q_DTwP,Serum_Institute,(1,_4),3_ >= 0
Q_DTwP,Serum_Institute,(1,_5),1_ >= 0
Q_DTwP,Serum_Institute,(1,_5),2_ >= 0
Q_DTwP,Serum_Institute,(1,_5),3_ >= 0
Q_DTwP,Serum_Institute,(2,_2),1_ >= 0
Q_DTwP,Serum_Institute,(2,_2),2_ >= 0
Q_DTwP,Serum_Institute,(2,_2),3_ >= 0
Q_DTwP,Serum_Institute,(2,_3),1_ >= 0
Q_DTwP,Serum_Institute,(2,_3),2_ >= 0
Q_DTwP,Serum_Institute,(2,_3),3_ >= 0
Q_DTwP,Serum_Institute,(2,_4),1_ >= 0
Q_DTwP,Serum_Institute,(2,_4),2_ >= 0
Q_DTwP,Serum_Institute,(2,_4),3_ >= 0
Q_DTwP,Serum_Institute,(2,_5),1_ >= 0
Q_DTwP,Serum_Institute,(2,_5),2_ >= 0
Q_DTwP,Serum_Institute,(2,_5),3_ >= 0
Q_DTwP,Serum_Institute,(2,_6),1_ >= 0
Q_DTwP,Serum_Institute,(2,_6),2_ >= 0
Q_DTwP,Serum_Institute,(2,_6),3_ >= 0
Q_DTwP,Serum_Institute,(3,_3),1_ >= 0
Q_DTwP,Serum_Institute,(3,_3),2_ >= 0
Q_DTwP,Serum_Institute,(3,_3),3_ >= 0
Q_DTwP,Serum_Institute,(3,_4),1_ >= 0
Q_DTwP,Serum_Institute,(3,_4),2_ >= 0
Q_DTwP,Serum_Institute,(3,_4),3_ >= 0
Q_DTwP,Serum_Institute,(3,_5),1_ >= 0
Q_DTwP,Serum_Institute,(3,_5),2_ >= 0
Q_DTwP,Serum_Institute,(3,_5),3_ >= 0
Q_DTwP,Serum_Institute,(3,_6),1_ >= 0
Q_DTwP,Serum_Institute,(3,_6),2_ >= 0
Q_DTwP,Serum_Institute,(3,_6),3_ >= 0
Q_DTwP,Serum_Institute,(3,_7),1_ >= 0
Q_DTwP,Serum_Institute,(3,_7),2_ >= 0
Q_DTwP,Serum_Institute,(3,_7),3_ >= 0
Q_DTwP,Serum_Institute,(4,_4),1_ >= 0
Q_DTwP,Serum_Institute,(4,_4),2_ >= 0
Q_DTwP,Serum_Institute,(4,_4),3_ >= 0
Q_DTwP,Serum_Institute,(4,_5),1_ >= 0
Q_DTwP,Serum_Institute,(4,_5),2_ >= 0
Q_DTwP,Serum_Institute,(4,_5),3_ >= 0
Q_DTwP,Serum_Institute,(4,_6),1_ >= 0
Q_DTwP,Serum_Institute,(4,_6),2_ >= 0
Q_DTwP,Serum_Institute,(4,_6),3_ >= 0
Q_DTwP,Serum_Institute,(4,_7),1_ >= 0
Q_DTwP,Serum_Institute,(4,_7),2_ >= 0
Q_DTwP,Serum_Institute,(4,_7),3_ >= 0
Q_DTwP,Serum_Institute,(4,_8),1_ >= 0
Q_DTwP,Serum_Institute,(4,_8),2_ >= 0
Q_DTwP,Serum_Institute,(4,_8),3_ >= 0
Q_DTwP,Serum_Institute,(5,_5),1_ >= 0
Q_DTwP,Serum_Institute,(5,_5),2_ >= 0
Q_DTwP,Serum_Institute,(5,_5),3_ >= 0
Q_DTwP,Serum_Institute,(5,_6),1_ >= 0
Q_DTwP,Serum_Institute,(5,_6),2_ >= 0
Q_DTwP,Serum_Institute,(5,_6),3_ >= 0
Q_DTwP,Serum_Institute,(5,_7),1_ >= 0
Q_DTwP,Serum_Institute,(5,_7),2_ >= 0
Q_DTwP,Serum_Institute,(5,_7),3_ >= 0
Q_DTwP,Serum_Institute,(5,_8),1_ >= 0
Q_DTwP,Serum_Institute,(5,_8),2_ >= 0
Q_DTwP,Serum_Institute,(5,_8),3_ >= 0
Q_DTwP,Serum_Institute,(5,_9),1_ >= 0
Q_DTwP,Serum_Institute,(5,_9),2_ >= 0
Q_DTwP,Serum_Institute,(5,_9),3_ >= 0
Q_DTwP,Serum_Institute,(6,_6),1_ >= 0
Q_DTwP,Serum_Institute,(6,_6),2_ >= 0
Q_DTwP,Serum_Institute,(6,_6),3_ >= 0
Q_DTwP,Serum_Institute,(6,_7),1_ >= 0
Q_DTwP,Serum_Institute,(6,_7),2_ >= 0
Q_DTwP,Serum_Institute,(6,_7),3_ >= 0
Q_DTwP,Serum_Institute,(6,_8),1_ >= 0
Q_DTwP,Serum_Institute,(6,_8),2_ >= 0
Q_DTwP,Serum_Institute,(6,_8),3_ >= 0
Q_DTwP,Serum_Institute,(6,_9),1_ >= 0
Q_DTwP,Serum_Institute,(6,_9),2_ >= 0
Q_DTwP,Serum_Institute,(6,_9),3_ >= 0
Q_DTwP,Serum_Institute,(6,_10),1_ >= 0
Q_DTwP,Serum_Institute,(6,_10),2_ >= 0
Q_DTwP,Serum_Institute,(6,_10),3_ >= 0
Q_DTwP,Serum_Institute,(7,_7),1_ >= 0
Q_DTwP,Serum_Institute,(7,_7),2_ >= 0
Q_DTwP,Serum_Institute,(7,_7),3_ >= 0
Q_DTwP,Serum_Institute,(7,_8),1_ >= 0
Q_DTwP,Serum_Institute,(7,_8),2_ >= 0
Q_DTwP,Serum_Institute,(7,_8),3_ >= 0
Q_DTwP,Serum_Institute,(7,_9),1_ >= 0
Q_DTwP,Serum_Institute,(7,_9),2_ >= 0
Q_DTwP,Serum_Institute,(7,_9),3_ >= 0
Q_DTwP,Serum_Institute,(7,_10),1_ >= 0
Q_DTwP,Serum_Institute,(7,_10),2_ >= 0
Q_DTwP,Serum_Institute,(7,_10),3_ >= 0
Q_DTwP,Serum_Institute,(8,_8),1_ >= 0
Q_DTwP,Serum_Institute,(8,_8),2_ >= 0
Q_DTwP,Serum_Institute,(8,_8),3_ >= 0
Q_DTwP,Serum_Institute,(8,_9),1_ >= 0
Q_DTwP,Serum_Institute,(8,_9),2_ >= 0
Q_DTwP,Serum_Institute,(8,_9),3_ >= 0
Q_DTwP,Serum_Institute,(8,_10),1_ >= 0
Q_DTwP,Serum_Institute,(8,_10),2_ >= 0
Q_DTwP,Serum_Institute,(8,_10),3_ >= 0
Q_DTwP,Serum_Institute,(9,_9),1_ >= 0
Q_DTwP,Serum_Institute,(9,_9),2_ >= 0
Q_DTwP,Serum_Institute,(9,_9),3_ >= 0
Q_DTwP,Serum_Institute,(9,_10),1_ >= 0
Q_DTwP,Serum_Institute,(9,_10),2_ >= 0
Q_DTwP,Serum_Institute,(9,_10),3_ >= 0
Q_DTwP,Serum_Institute,(10,_10),1_ >= 0
Q_DTwP,Serum_Institute,(10,_10),2_ >= 0
Q_DTwP,Serum_Institute,(10,_10),3_ >= 0
Q_DTwP,Biological_E,(1,_1),1_ >= 0
Q_DTwP,Biological_E,(1,_1),2_ >= 0
Q_DTwP,Biological_E,(1,_1),3_ >= 0
Q_DTwP,Biological_E,(1,_2),1_ >= 0
Q_DTwP,Biological_E,(1,_2),2_ >= 0
Q_DTwP,Biological_E,(1,_2),3_ >= 0
Q_DTwP,Biological_E,(1,_3),1_ >= 0
Q_DTwP,Biological_E,(1,_3),2_ >= 0
Q_DTwP,Biological_E,(1,_3),3_ >= 0
Q_DTwP,Biological_E,(1,_4),1_ >= 0
Q_DTwP,Biological_E,(1,_4),2_ >= 0
Q_DTwP,Biological_E,(1,_4),3_ >= 0
Q_DTwP,Biological_E,(1,_5),1_ >= 0
Q_DTwP,Biological_E,(1,_5),2_ >= 0
Q_DTwP,Biological_E,(1,_5),3_ >= 0
Q_DTwP,Biological_E,(2,_2),1_ >= 0
Q_DTwP,Biological_E,(2,_2),2_ >= 0
Q_DTwP,Biological_E,(2,_2),3_ >= 0
Q_DTwP,Biological_E,(2,_3),1_ >= 0
Q_DTwP,Biological_E,(2,_3),2_ >= 0
Q_DTwP,Biological_E,(2,_3),3_ >= 0
Q_DTwP,Biological_E,(2,_4),1_ >= 0
Q_DTwP,Biological_E,(2,_4),2_ >= 0
Q_DTwP,Biological_E,(2,_4),3_ >= 0
Q_DTwP,Biological_E,(2,_5),1_ >= 0
Q_DTwP,Biological_E,(2,_5),2_ >= 0
Q_DTwP,Biological_E,(2,_5),3_ >= 0
Q_DTwP,Biological_E,(2,_6),1_ >= 0
Q_DTwP,Biological_E,(2,_6),2_ >= 0
Q_DTwP,Biological_E,(2,_6),3_ >= 0
Q_DTwP,Biological_E,(3,_3),1_ >= 0
Q_DTwP,Biological_E,(3,_3),2_ >= 0
Q_DTwP,Biological_E,(3,_3),3_ >= 0
Q_DTwP,Biological_E,(3,_4),1_ >= 0
Q_DTwP,Biological_E,(3,_4),2_ >= 0
Q_DTwP,Biological_E,(3,_4),3_ >= 0
Q_DTwP,Biological_E,(3,_5),1_ >= 0
Q_DTwP,Biological_E,(3,_5),2_ >= 0
Q_DTwP,Biological_E,(3,_5),3_ >= 0
Q_DTwP,Biological_E,(3,_6),1_ >= 0
Q_DTwP,Biological_E,(3,_6),2_ >= 0
Q_DTwP,Biological_E,(3,_6),3_ >= 0
Q_DTwP,Biological_E,(3,_7),1_ >= 0
Q_DTwP,Biological_E,(3,_7),2_ >= 0
Q_DTwP,Biological_E,(3,_7),3_ >= 0
Q_DTwP,Biological_E,(4,_4),1_ >= 0
Q_DTwP,Biological_E,(4,_4),2_ >= 0
Q_DTwP,Biological_E,(4,_4),3_ >= 0
Q_DTwP,Biological_E,(4,_5),1_ >= 0
Q_DTwP,Biological_E,(4,_5),2_ >= 0
Q_DTwP,Biological_E,(4,_5),3_ >= 0
Q_DTwP,Biological_E,(4,_6),1_ >= 0
Q_DTwP,Biological_E,(4,_6),2_ >= 0
Q_DTwP,Biological_E,(4,_6),3_ >= 0
Q_DTwP,Biological_E,(4,_7),1_ >= 0
Q_DTwP,Biological_E,(4,_7),2_ >= 0
Q_DTwP,Biological_E,(4,_7),3_ >= 0
Q_DTwP,Biological_E,(4,_8),1_ >= 0
Q_DTwP,Biological_E,(4,_8),2_ >= 0
Q_DTwP,Biological_E,(4,_8),3_ >= 0
Q_DTwP,Biological_E,(5,_5),1_ >= 0
Q_DTwP,Biological_E,(5,_5),2_ >= 0
Q_DTwP,Biological_E,(5,_5),3_ >= 0
Q_DTwP,Biological_E,(5,_6),1_ >= 0
Q_DTwP,Biological_E,(5,_6),2_ >= 0
Q_DTwP,Biological_E,(5,_6),3_ >= 0
Q_DTwP,Biological_E,(5,_7),1_ >= 0
Q_DTwP,Biological_E,(5,_7),2_ >= 0
Q_DTwP,Biological_E,(5,_7),3_ >= 0
Q_DTwP,Biological_E,(5,_8),1_ >= 0
Q_DTwP,Biological_E,(5,_8),2_ >= 0
Q_DTwP,Biological_E,(5,_8),3_ >= 0
Q_DTwP,Biological_E,(5,_9),1_ >= 0
Q_DTwP,Biological_E,(5,_9),2_ >= 0
Q_DTwP,Biological_E,(5,_9),3_ >= 0
Q_DTwP,Biological_E,(6,_6),1_ >= 0
Q_DTwP,Biological_E,(6,_6),2_ >= 0
Q_DTwP,Biological_E,(6,_6),3_ >= 0
Q_DTwP,Biological_E,(6,_7),1_ >= 0
Q_DTwP,Biological_E,(6,_7),2_ >= 0
Q_DTwP,Biological_E,(6,_7),3_ >= 0
Q_DTwP,Biological_E,(6,_8),1_ >= 0
Q_DTwP,Biological_E,(6,_8),2_ >= 0
Q_DTwP,Biological_E,(6,_8),3_ >= 0
Q_DTwP,Biological_E,(6,_9),1_ >= 0
Q_DTwP,Biological_E,(6,_9),2_ >= 0
Q_DTwP,Biological_E,(6,_9),3_ >= 0
Q_DTwP,Biological_E,(6,_10),1_ >= 0
Q_DTwP,Biological_E,(6,_10),2_ >= 0
Q_DTwP,Biological_E,(6,_10),3_ >= 0
Q_DTwP,Biological_E,(7,_7),1_ >= 0
Q_DTwP,Biological_E,(7,_7),2_ >= 0
Q_DTwP,Biological_E,(7,_7),3_ >= 0
Q_DTwP,Biological_E,(7,_8),1_ >= 0
Q_DTwP,Biological_E,(7,_8),2_ >= 0
Q_DTwP,Biological_E,(7,_8),3_ >= 0
Q_DTwP,Biological_E,(7,_9),1_ >= 0
Q_DTwP,Biological_E,(7,_9),2_ >= 0
Q_DTwP,Biological_E,(7,_9),3_ >= 0
Q_DTwP,Biological_E,(7,_10),1_ >= 0
Q_DTwP,Biological_E,(7,_10),2_ >= 0
Q_DTwP,Biological_E,(7,_10),3_ >= 0
Q_DTwP,Biological_E,(8,_8),1_ >= 0
Q_DTwP,Biological_E,(8,_8),2_ >= 0
Q_DTwP,Biological_E,(8,_8),3_ >= 0
Q_DTwP,Biological_E,(8,_9),1_ >= 0
Q_DTwP,Biological_E,(8,_9),2_ >= 0
Q_DTwP,Biological_E,(8,_9),3_ >= 0
Q_DTwP,Biological_E,(8,_10),1_ >= 0
Q_DTwP,Biological_E,(8,_10),2_ >= 0
Q_DTwP,Biological_E,(8,_10),3_ >= 0
Q_DTwP,Biological_E,(9,_9),1_ >= 0
Q_DTwP,Biological_E,(9,_9),2_ >= 0
Q_DTwP,Biological_E,(9,_9),3_ >= 0
Q_DTwP,Biological_E,(9,_10),1_ >= 0
Q_DTwP,Biological_E,(9,_10),2_ >= 0
Q_DTwP,Biological_E,(9,_10),3_ >= 0
Q_DTwP,Biological_E,(10,_10),1_ >= 0
Q_DTwP,Biological_E,(10,_10),2_ >= 0
Q_DTwP,Biological_E,(10,_10),3_ >= 0
Q_DTwP_Hib,Serum_Institute,(1,_1),1_ >= 0
Q_DTwP_Hib,Serum_Institute,(1,_1),2_ >= 0
Q_DTwP_Hib,Serum_Institute,(1,_1),3_ >= 0
Q_DTwP_Hib,Serum_Institute,(1,_2),1_ >= 0
Q_DTwP_Hib,Serum_Institute,(1,_2),2_ >= 0
Q_DTwP_Hib,Serum_Institute,(1,_2),3_ >= 0
Q_DTwP_Hib,Serum_Institute,(1,_3),1_ >= 0
Q_DTwP_Hib,Serum_Institute,(1,_3),2_ >= 0
Q_DTwP_Hib,Serum_Institute,(1,_3),3_ >= 0
Q_DTwP_Hib,Serum_Institute,(1,_4),1_ >= 0
Q_DTwP_Hib,Serum_Institute,(1,_4),2_ >= 0
Q_DTwP_Hib,Serum_Institute,(1,_4),3_ >= 0
Q_DTwP_Hib,Serum_Institute,(1,_5),1_ >= 0
Q_DTwP_Hib,Serum_Institute,(1,_5),2_ >= 0
Q_DTwP_Hib,Serum_Institute,(1,_5),3_ >= 0
Q_DTwP_Hib,Serum_Institute,(2,_2),1_ >= 0
Q_DTwP_Hib,Serum_Institute,(2,_2),2_ >= 0
Q_DTwP_Hib,Serum_Institute,(2,_2),3_ >= 0
Q_DTwP_Hib,Serum_Institute,(2,_3),1_ >= 0
Q_DTwP_Hib,Serum_Institute,(2,_3),2_ >= 0
Q_DTwP_Hib,Serum_Institute,(2,_3),3_ >= 0
Q_DTwP_Hib,Serum_Institute,(2,_4),1_ >= 0
Q_DTwP_Hib,Serum_Institute,(2,_4),2_ >= 0
Q_DTwP_Hib,Serum_Institute,(2,_4),3_ >= 0
Q_DTwP_Hib,Serum_Institute,(2,_5),1_ >= 0
Q_DTwP_Hib,Serum_Institute,(2,_5),2_ >= 0
Q_DTwP_Hib,Serum_Institute,(2,_5),3_ >= 0
Q_DTwP_Hib,Serum_Institute,(2,_6),1_ >= 0
Q_DTwP_Hib,Serum_Institute,(2,_6),2_ >= 0
Q_DTwP_Hib,Serum_Institute,(2,_6),3_ >= 0
Q_DTwP_Hib,Serum_Institute,(3,_3),1_ >= 0
Q_DTwP_Hib,Serum_Institute,(3,_3),2_ >= 0
Q_DTwP_Hib,Serum_Institute,(3,_3),3_ >= 0
Q_DTwP_Hib,Serum_Institute,(3,_4),1_ >= 0
Q_DTwP_Hib,Serum_Institute,(3,_4),2_ >= 0
Q_DTwP_Hib,Serum_Institute,(3,_4),3_ >= 0
Q_DTwP_Hib,Serum_Institute,(3,_5),1_ >= 0
Q_DTwP_Hib,Serum_Institute,(3,_5),2_ >= 0
Q_DTwP_Hib,Serum_Institute,(3,_5),3_ >= 0
Q_DTwP_Hib,Serum_Institute,(3,_6),1_ >= 0
Q_DTwP_Hib,Serum_Institute,(3,_6),2_ >= 0
Q_DTwP_Hib,Serum_Institute,(3,_6),3_ >= 0
Q_DTwP_Hib,Serum_Institute,(3,_7),1_ >= 0
Q_DTwP_Hib,Serum_Institute,(3,_7),2_ >= 0
Q_DTwP_Hib,Serum_Institute,(3,_7),3_ >= 0
Q_DTwP_Hib,Serum_Institute,(4,_4),1_ >= 0
Q_DTwP_Hib,Serum_Institute,(4,_4),2_ >= 0
Q_DTwP_Hib,Serum_Institute,(4,_4),3_ >= 0
Q_DTwP_Hib,Serum_Institute,(4,_5),1_ >= 0
Q_DTwP_Hib,Serum_Institute,(4,_5),2_ >= 0
Q_DTwP_Hib,Serum_Institute,(4,_5),3_ >= 0
Q_DTwP_Hib,Serum_Institute,(4,_6),1_ >= 0
Q_DTwP_Hib,Serum_Institute,(4,_6),2_ >= 0
Q_DTwP_Hib,Serum_Institute,(4,_6),3_ >= 0
Q_DTwP_Hib,Serum_Institute,(4,_7),1_ >= 0
Q_DTwP_Hib,Serum_Institute,(4,_7),2_ >= 0
Q_DTwP_Hib,Serum_Institute,(4,_7),3_ >= 0
Q_DTwP_Hib,Serum_Institute,(4,_8),1_ >= 0
Q_DTwP_Hib,Serum_Institute,(4,_8),2_ >= 0
Q_DTwP_Hib,Serum_Institute,(4,_8),3_ >= 0
Q_DTwP_Hib,Serum_Institute,(5,_5),1_ >= 0
Q_DTwP_Hib,Serum_Institute,(5,_5),2_ >= 0
Q_DTwP_Hib,Serum_Institute,(5,_5),3_ >= 0
Q_DTwP_Hib,Serum_Institute,(5,_6),1_ >= 0
Q_DTwP_Hib,Serum_Institute,(5,_6),2_ >= 0
Q_DTwP_Hib,Serum_Institute,(5,_6),3_ >= 0
Q_DTwP_Hib,Serum_Institute,(5,_7),1_ >= 0
Q_DTwP_Hib,Serum_Institute,(5,_7),2_ >= 0
Q_DTwP_Hib,Serum_Institute,(5,_7),3_ >= 0
Q_DTwP_Hib,Serum_Institute,(5,_8),1_ >= 0
Q_DTwP_Hib,Serum_Institute,(5,_8),2_ >= 0
Q_DTwP_Hib,Serum_Institute,(5,_8),3_ >= 0
Q_DTwP_Hib,Serum_Institute,(5,_9),1_ >= 0
Q_DTwP_Hib,Serum_Institute,(5,_9),2_ >= 0
Q_DTwP_Hib,Serum_Institute,(5,_9),3_ >= 0
Q_DTwP_Hib,Serum_Institute,(6,_6),1_ >= 0
Q_DTwP_Hib,Serum_Institute,(6,_6),2_ >= 0
Q_DTwP_Hib,Serum_Institute,(6,_6),3_ >= 0
Q_DTwP_Hib,Serum_Institute,(6,_7),1_ >= 0
Q_DTwP_Hib,Serum_Institute,(6,_7),2_ >= 0
Q_DTwP_Hib,Serum_Institute,(6,_7),3_ >= 0
Q_DTwP_Hib,Serum_Institute,(6,_8),1_ >= 0
Q_DTwP_Hib,Serum_Institute,(6,_8),2_ >= 0
Q_DTwP_Hib,Serum_Institute,(6,_8),3_ >= 0
Q_DTwP_Hib,Serum_Institute,(6,_9),1_ >= 0
Q_DTwP_Hib,Serum_Institute,(6,_9),2_ >= 0
Q_DTwP_Hib,Serum_Institute,(6,_9),3_ >= 0
Q_DTwP_Hib,Serum_Institute,(6,_10),1_ >= 0
Q_DTwP_Hib,Serum_Institute,(6,_10),2_ >= 0
Q_DTwP_Hib,Serum_Institute,(6,_10),3_ >= 0
Q_DTwP_Hib,Serum_Institute,(7,_7),1_ >= 0
Q_DTwP_Hib,Serum_Institute,(7,_7),2_ >= 0
Q_DTwP_Hib,Serum_Institute,(7,_7),3_ >= 0
Q_DTwP_Hib,Serum_Institute,(7,_8),1_ >= 0
Q_DTwP_Hib,Serum_Institute,(7,_8),2_ >= 0
Q_DTwP_Hib,Serum_Institute,(7,_8),3_ >= 0
Q_DTwP_Hib,Serum_Institute,(7,_9),1_ >= 0
Q_DTwP_Hib,Serum_Institute,(7,_9),2_ >= 0
Q_DTwP_Hib,Serum_Institute,(7,_9),3_ >= 0
Q_DTwP_Hib,Serum_Institute,(7,_10),1_ >= 0
Q_DTwP_Hib,Serum_Institute,(7,_10),2_ >= 0
Q_DTwP_Hib,Serum_Institute,(7,_10),3_ >= 0
Q_DTwP_Hib,Serum_Institute,(8,_8),1_ >= 0
Q_DTwP_Hib,Serum_Institute,(8,_8),2_ >= 0
Q_DTwP_Hib,Serum_Institute,(8,_8),3_ >= 0
Q_DTwP_Hib,Serum_Institute,(8,_9),1_ >= 0
Q_DTwP_Hib,Serum_Institute,(8,_9),2_ >= 0
Q_DTwP_Hib,Serum_Institute,(8,_9),3_ >= 0
Q_DTwP_Hib,Serum_Institute,(8,_10),1_ >= 0
Q_DTwP_Hib,Serum_Institute,(8,_10),2_ >= 0
Q_DTwP_Hib,Serum_Institute,(8,_10),3_ >= 0
Q_DTwP_Hib,Serum_Institute,(9,_9),1_ >= 0
Q_DTwP_Hib,Serum_Institute,(9,_9),2_ >= 0
Q_DTwP_Hib,Serum_Institute,(9,_9),3_ >= 0
Q_DTwP_Hib,Serum_Institute,(9,_10),1_ >= 0
Q_DTwP_Hib,Serum_Institute,(9,_10),2_ >= 0
Q_DTwP_Hib,Serum_Institute,(9,_10),3_ >= 0
Q_DTwP_Hib,Serum_Institute,(10,_10),1_ >= 0
Q_DTwP_Hib,Serum_Institute,(10,_10),2_ >= 0
Q_DTwP_Hib,Serum_Institute,(10,_10),3_ >= 0
Q_Penta,Serum_Institute,(1,_1),1_ >= 0
Q_Penta,Serum_Institute,(1,_1),2_ >= 0
Q_Penta,Serum_Institute,(1,_1),3_ >= 0
Q_Penta,Serum_Institute,(1,_2),1_ >= 0
Q_Penta,Serum_Institute,(1,_2),2_ >= 0
Q_Penta,Serum_Institute,(1,_2),3_ >= 0
Q_Penta,Serum_Institute,(1,_3),1_ >= 0
Q_Penta,Serum_Institute,(1,_3),2_ >= 0
Q_Penta,Serum_Institute,(1,_3),3_ >= 0
Q_Penta,Serum_Institute,(1,_4),1_ >= 0
Q_Penta,Serum_Institute,(1,_4),2_ >= 0
Q_Penta,Serum_Institute,(1,_4),3_ >= 0
Q_Penta,Serum_Institute,(1,_5),1_ >= 0
Q_Penta,Serum_Institute,(1,_5),2_ >= 0
Q_Penta,Serum_Institute,(1,_5),3_ >= 0
Q_Penta,Serum_Institute,(2,_2),1_ >= 0
Q_Penta,Serum_Institute,(2,_2),2_ >= 0
Q_Penta,Serum_Institute,(2,_2),3_ >= 0
Q_Penta,Serum_Institute,(2,_3),1_ >= 0
Q_Penta,Serum_Institute,(2,_3),2_ >= 0
Q_Penta,Serum_Institute,(2,_3),3_ >= 0
Q_Penta,Serum_Institute,(2,_4),1_ >= 0
Q_Penta,Serum_Institute,(2,_4),2_ >= 0
Q_Penta,Serum_Institute,(2,_4),3_ >= 0
Q_Penta,Serum_Institute,(2,_5),1_ >= 0
Q_Penta,Serum_Institute,(2,_5),2_ >= 0
Q_Penta,Serum_Institute,(2,_5),3_ >= 0
Q_Penta,Serum_Institute,(2,_6),1_ >= 0
Q_Penta,Serum_Institute,(2,_6),2_ >= 0
Q_Penta,Serum_Institute,(2,_6),3_ >= 0
Q_Penta,Serum_Institute,(3,_3),1_ >= 0
Q_Penta,Serum_Institute,(3,_3),2_ >= 0
Q_Penta,Serum_Institute,(3,_3),3_ >= 0
Q_Penta,Serum_Institute,(3,_4),1_ >= 0
Q_Penta,Serum_Institute,(3,_4),2_ >= 0
Q_Penta,Serum_Institute,(3,_4),3_ >= 0
Q_Penta,Serum_Institute,(3,_5),1_ >= 0
Q_Penta,Serum_Institute,(3,_5),2_ >= 0
Q_Penta,Serum_Institute,(3,_5),3_ >= 0
Q_Penta,Serum_Institute,(3,_6),1_ >= 0
Q_Penta,Serum_Institute,(3,_6),2_ >= 0
Q_Penta,Serum_Institute,(3,_6),3_ >= 0
Q_Penta,Serum_Institute,(3,_7),1_ >= 0
Q_Penta,Serum_Institute,(3,_7),2_ >= 0
Q_Penta,Serum_Institute,(3,_7),3_ >= 0
Q_Penta,Serum_Institute,(4,_4),1_ >= 0
Q_Penta,Serum_Institute,(4,_4),2_ >= 0
Q_Penta,Serum_Institute,(4,_4),3_ >= 0
Q_Penta,Serum_Institute,(4,_5),1_ >= 0
Q_Penta,Serum_Institute,(4,_5),2_ >= 0
Q_Penta,Serum_Institute,(4,_5),3_ >= 0
Q_Penta,Serum_Institute,(4,_6),1_ >= 0
Q_Penta,Serum_Institute,(4,_6),2_ >= 0
Q_Penta,Serum_Institute,(4,_6),3_ >= 0
Q_Penta,Serum_Institute,(4,_7),1_ >= 0
Q_Penta,Serum_Institute,(4,_7),2_ >= 0
Q_Penta,Serum_Institute,(4,_7),3_ >= 0
Q_Penta,Serum_Institute,(4,_8),1_ >= 0
Q_Penta,Serum_Institute,(4,_8),2_ >= 0
Q_Penta,Serum_Institute,(4,_8),3_ >= 0
Q_Penta,Serum_Institute,(5,_5),1_ >= 0
Q_Penta,Serum_Institute,(5,_5),2_ >= 0
Q_Penta,Serum_Institute,(5,_5),3_ >= 0
Q_Penta,Serum_Institute,(5,_6),1_ >= 0
Q_Penta,Serum_Institute,(5,_6),2_ >= 0
Q_Penta,Serum_Institute,(5,_6),3_ >= 0
Q_Penta,Serum_Institute,(5,_7),1_ >= 0
Q_Penta,Serum_Institute,(5,_7),2_ >= 0
Q_Penta,Serum_Institute,(5,_7),3_ >= 0
Q_Penta,Serum_Institute,(5,_8),1_ >= 0
Q_Penta,Serum_Institute,(5,_8),2_ >= 0
Q_Penta,Serum_Institute,(5,_8),3_ >= 0
Q_Penta,Serum_Institute,(5,_9),1_ >= 0
Q_Penta,Serum_Institute,(5,_9),2_ >= 0
Q_Penta,Serum_Institute,(5,_9),3_ >= 0
Q_Penta,Serum_Institute,(6,_6),1_ >= 0
Q_Penta,Serum_Institute,(6,_6),2_ >= 0
Q_Penta,Serum_Institute,(6,_6),3_ >= 0
Q_Penta,Serum_Institute,(6,_7),1_ >= 0
Q_Penta,Serum_Institute,(6,_7),2_ >= 0
Q_Penta,Serum_Institute,(6,_7),3_ >= 0
Q_Penta,Serum_Institute,(6,_8),1_ >= 0
Q_Penta,Serum_Institute,(6,_8),2_ >= 0
Q_Penta,Serum_Institute,(6,_8),3_ >= 0
Q_Penta,Serum_Institute,(6,_9),1_ >= 0
Q_Penta,Serum_Institute,(6,_9),2_ >= 0
Q_Penta,Serum_Institute,(6,_9),3_ >= 0
Q_Penta,Serum_Institute,(6,_10),1_ >= 0
Q_Penta,Serum_Institute,(6,_10),2_ >= 0
Q_Penta,Serum_Institute,(6,_10),3_ >= 0
Q_Penta,Serum_Institute,(7,_7),1_ >= 0
Q_Penta,Serum_Institute,(7,_7),2_ >= 0
Q_Penta,Serum_Institute,(7,_7),3_ >= 0
Q_Penta,Serum_Institute,(7,_8),1_ >= 0
Q_Penta,Serum_Institute,(7,_8),2_ >= 0
Q_Penta,Serum_Institute,(7,_8),3_ >= 0
Q_Penta,Serum_Institute,(7,_9),1_ >= 0
Q_Penta,Serum_Institute,(7,_9),2_ >= 0
Q_Penta,Serum_Institute,(7,_9),3_ >= 0
Q_Penta,Serum_Institute,(7,_10),1_ >= 0
Q_Penta,Serum_Institute,(7,_10),2_ >= 0
Q_Penta,Serum_Institute,(7,_10),3_ >= 0
Q_Penta,Serum_Institute,(8,_8),1_ >= 0
Q_Penta,Serum_Institute,(8,_8),2_ >= 0
Q_Penta,Serum_Institute,(8,_8),3_ >= 0
Q_Penta,Serum_Institute,(8,_9),1_ >= 0
Q_Penta,Serum_Institute,(8,_9),2_ >= 0
Q_Penta,Serum_Institute,(8,_9),3_ >= 0
Q_Penta,Serum_Institute,(8,_10),1_ >= 0
Q_Penta,Serum_Institute,(8,_10),2_ >= 0
Q_Penta,Serum_Institute,(8,_10),3_ >= 0
Q_Penta,Serum_Institute,(9,_9),1_ >= 0
Q_Penta,Serum_Institute,(9,_9),2_ >= 0
Q_Penta,Serum_Institute,(9,_9),3_ >= 0
Q_Penta,Serum_Institute,(9,_10),1_ >= 0
Q_Penta,Serum_Institute,(9,_10),2_ >= 0
Q_Penta,Serum_Institute,(9,_10),3_ >= 0
Q_Penta,Serum_Institute,(10,_10),1_ >= 0
Q_Penta,Serum_Institute,(10,_10),2_ >= 0
Q_Penta,Serum_Institute,(10,_10),3_ >= 0
Q_Penta,PT_Bio,(1,_1),1_ >= 0
Q_Penta,PT_Bio,(1,_1),2_ >= 0
Q_Penta,PT_Bio,(1,_1),3_ >= 0
Q_Penta,PT_Bio,(1,_2),1_ >= 0
Q_Penta,PT_Bio,(1,_2),2_ >= 0
Q_Penta,PT_Bio,(1,_2),3_ >= 0
Q_Penta,PT_Bio,(1,_3),1_ >= 0
Q_Penta,PT_Bio,(1,_3),2_ >= 0
Q_Penta,PT_Bio,(1,_3),3_ >= 0
Q_Penta,PT_Bio,(1,_4),1_ >= 0
Q_Penta,PT_Bio,(1,_4),2_ >= 0
Q_Penta,PT_Bio,(1,_4),3_ >= 0
Q_Penta,PT_Bio,(1,_5),1_ >= 0
Q_Penta,PT_Bio,(1,_5),2_ >= 0
Q_Penta,PT_Bio,(1,_5),3_ >= 0
Q_Penta,PT_Bio,(2,_2),1_ >= 0
Q_Penta,PT_Bio,(2,_2),2_ >= 0
Q_Penta,PT_Bio,(2,_2),3_ >= 0
Q_Penta,PT_Bio,(2,_3),1_ >= 0
Q_Penta,PT_Bio,(2,_3),2_ >= 0
Q_Penta,PT_Bio,(2,_3),3_ >= 0
Q_Penta,PT_Bio,(2,_4),1_ >= 0
Q_Penta,PT_Bio,(2,_4),2_ >= 0
Q_Penta,PT_Bio,(2,_4),3_ >= 0
Q_Penta,PT_Bio,(2,_5),1_ >= 0
Q_Penta,PT_Bio,(2,_5),2_ >= 0
Q_Penta,PT_Bio,(2,_5),3_ >= 0
Q_Penta,PT_Bio,(2,_6),1_ >= 0
Q_Penta,PT_Bio,(2,_6),2_ >= 0
Q_Penta,PT_Bio,(2,_6),3_ >= 0
Q_Penta,PT_Bio,(3,_3),1_ >= 0
Q_Penta,PT_Bio,(3,_3),2_ >= 0
Q_Penta,PT_Bio,(3,_3),3_ >= 0
Q_Penta,PT_Bio,(3,_4),1_ >= 0
Q_Penta,PT_Bio,(3,_4),2_ >= 0
Q_Penta,PT_Bio,(3,_4),3_ >= 0
Q_Penta,PT_Bio,(3,_5),1_ >= 0
Q_Penta,PT_Bio,(3,_5),2_ >= 0
Q_Penta,PT_Bio,(3,_5),3_ >= 0
Q_Penta,PT_Bio,(3,_6),1_ >= 0
Q_Penta,PT_Bio,(3,_6),2_ >= 0
Q_Penta,PT_Bio,(3,_6),3_ >= 0
Q_Penta,PT_Bio,(3,_7),1_ >= 0
Q_Penta,PT_Bio,(3,_7),2_ >= 0
Q_Penta,PT_Bio,(3,_7),3_ >= 0
Q_Penta,PT_Bio,(4,_4),1_ >= 0
Q_Penta,PT_Bio,(4,_4),2_ >= 0
Q_Penta,PT_Bio,(4,_4),3_ >= 0
Q_Penta,PT_Bio,(4,_5),1_ >= 0
Q_Penta,PT_Bio,(4,_5),2_ >= 0
Q_Penta,PT_Bio,(4,_5),3_ >= 0
Q_Penta,PT_Bio,(4,_6),1_ >= 0
Q_Penta,PT_Bio,(4,_6),2_ >= 0
Q_Penta,PT_Bio,(4,_6),3_ >= 0
Q_Penta,PT_Bio,(4,_7),1_ >= 0
Q_Penta,PT_Bio,(4,_7),2_ >= 0
Q_Penta,PT_Bio,(4,_7),3_ >= 0
Q_Penta,PT_Bio,(4,_8),1_ >= 0
Q_Penta,PT_Bio,(4,_8),2_ >= 0
Q_Penta,PT_Bio,(4,_8),3_ >= 0
Q_Penta,PT_Bio,(5,_5),1_ >= 0
Q_Penta,PT_Bio,(5,_5),2_ >= 0
Q_Penta,PT_Bio,(5,_5),3_ >= 0
Q_Penta,PT_Bio,(5,_6),1_ >= 0
Q_Penta,PT_Bio,(5,_6),2_ >= 0
Q_Penta,PT_Bio,(5,_6),3_ >= 0
Q_Penta,PT_Bio,(5,_7),1_ >= 0
Q_Penta,PT_Bio,(5,_7),2_ >= 0
Q_Penta,PT_Bio,(5,_7),3_ >= 0
Q_Penta,PT_Bio,(5,_8),1_ >= 0
Q_Penta,PT_Bio,(5,_8),2_ >= 0
Q_Penta,PT_Bio,(5,_8),3_ >= 0
Q_Penta,PT_Bio,(5,_9),1_ >= 0
Q_Penta,PT_Bio,(5,_9),2_ >= 0
Q_Penta,PT_Bio,(5,_9),3_ >= 0
Q_Penta,PT_Bio,(6,_6),1_ >= 0
Q_Penta,PT_Bio,(6,_6),2_ >= 0
Q_Penta,PT_Bio,(6,_6),3_ >= 0
Q_Penta,PT_Bio,(6,_7),1_ >= 0
Q_Penta,PT_Bio,(6,_7),2_ >= 0
Q_Penta,PT_Bio,(6,_7),3_ >= 0
Q_Penta,PT_Bio,(6,_8),1_ >= 0
Q_Penta,PT_Bio,(6,_8),2_ >= 0
Q_Penta,PT_Bio,(6,_8),3_ >= 0
Q_Penta,PT_Bio,(6,_9),1_ >= 0
Q_Penta,PT_Bio,(6,_9),2_ >= 0
Q_Penta,PT_Bio,(6,_9),3_ >= 0
Q_Penta,PT_Bio,(6,_10),1_ >= 0
Q_Penta,PT_Bio,(6,_10),2_ >= 0
Q_Penta,PT_Bio,(6,_10),3_ >= 0
Q_Penta,PT_Bio,(7,_7),1_ >= 0
Q_Penta,PT_Bio,(7,_7),2_ >= 0
Q_Penta,PT_Bio,(7,_7),3_ >= 0
Q_Penta,PT_Bio,(7,_8),1_ >= 0
Q_Penta,PT_Bio,(7,_8),2_ >= 0
Q_Penta,PT_Bio,(7,_8),3_ >= 0
Q_Penta,PT_Bio,(7,_9),1_ >= 0
Q_Penta,PT_Bio,(7,_9),2_ >= 0
Q_Penta,PT_Bio,(7,_9),3_ >= 0
Q_Penta,PT_Bio,(7,_10),1_ >= 0
Q_Penta,PT_Bio,(7,_10),2_ >= 0
Q_Penta,PT_Bio,(7,_10),3_ >= 0
Q_Penta,PT_Bio,(8,_8),1_ >= 0
Q_Penta,PT_Bio,(8,_8),2_ >= 0
Q_Penta,PT_Bio,(8,_8),3_ >= 0
Q_Penta,PT_Bio,(8,_9),1_ >= 0
Q_Penta,PT_Bio,(8,_9),2_ >= 0
Q_Penta,PT_Bio,(8,_9),3_ >= 0
Q_Penta,PT_Bio,(8,_10),1_ >= 0
Q_Penta,PT_Bio,(8,_10),2_ >= 0
Q_Penta,PT_Bio,(8,_10),3_ >= 0
Q_Penta,PT_Bio,(9,_9),1_ >= 0
Q_Penta,PT_Bio,(9,_9),2_ >= 0
Q_Penta,PT_Bio,(9,_9),3_ >= 0
Q_Penta,PT_Bio,(9,_10),1_ >= 0
Q_Penta,PT_Bio,(9,_10),2_ >= 0
Q_Penta,PT_Bio,(9,_10),3_ >= 0
Q_Penta,PT_Bio,(10,_10),1_ >= 0
Q_Penta,PT_Bio,(10,_10),2_ >= 0
Q_Penta,PT_Bio,(10,_10),3_ >= 0
Q_Penta,Biological_E,(1,_1),1_ >= 0
Q_Penta,Biological_E,(1,_1),2_ >= 0
Q_Penta,Biological_E,(1,_1),3_ >= 0
Q_Penta,Biological_E,(1,_2),1_ >= 0
Q_Penta,Biological_E,(1,_2),2_ >= 0
Q_Penta,Biological_E,(1,_2),3_ >= 0
Q_Penta,Biological_E,(1,_3),1_ >= 0
Q_Penta,Biological_E,(1,_3),2_ >= 0
Q_Penta,Biological_E,(1,_3),3_ >= 0
Q_Penta,Biological_E,(1,_4),1_ >= 0
Q_Penta,Biological_E,(1,_4),2_ >= 0
Q_Penta,Biological_E,(1,_4),3_ >= 0
Q_Penta,Biological_E,(1,_5),1_ >= 0
Q_Penta,Biological_E,(1,_5),2_ >= 0
Q_Penta,Biological_E,(1,_5),3_ >= 0
Q_Penta,Biological_E,(2,_2),1_ >= 0
Q_Penta,Biological_E,(2,_2),2_ >= 0
Q_Penta,Biological_E,(2,_2),3_ >= 0
Q_Penta,Biological_E,(2,_3),1_ >= 0
Q_Penta,Biological_E,(2,_3),2_ >= 0
Q_Penta,Biological_E,(2,_3),3_ >= 0
Q_Penta,Biological_E,(2,_4),1_ >= 0
Q_Penta,Biological_E,(2,_4),2_ >= 0
Q_Penta,Biological_E,(2,_4),3_ >= 0
Q_Penta,Biological_E,(2,_5),1_ >= 0
Q_Penta,Biological_E,(2,_5),2_ >= 0
Q_Penta,Biological_E,(2,_5),3_ >= 0
Q_Penta,Biological_E,(2,_6),1_ >= 0
Q_Penta,Biological_E,(2,_6),2_ >= 0
Q_Penta,Biological_E,(2,_6),3_ >= 0
Q_Penta,Biological_E,(3,_3),1_ >= 0
Q_Penta,Biological_E,(3,_3),2_ >= 0
Q_Penta,Biological_E,(3,_3),3_ >= 0
Q_Penta,Biological_E,(3,_4),1_ >= 0
Q_Penta,Biological_E,(3,_4),2_ >= 0
Q_Penta,Biological_E,(3,_4),3_ >= 0
Q_Penta,Biological_E,(3,_5),1_ >= 0
Q_Penta,Biological_E,(3,_5),2_ >= 0
Q_Penta,Biological_E,(3,_5),3_ >= 0
Q_Penta,Biological_E,(3,_6),1_ >= 0
Q_Penta,Biological_E,(3,_6),2_ >= 0
Q_Penta,Biological_E,(3,_6),3_ >= 0
Q_Penta,Biological_E,(3,_7),1_ >= 0
Q_Penta,Biological_E,(3,_7),2_ >= 0
Q_Penta,Biological_E,(3,_7),3_ >= 0
Q_Penta,Biological_E,(4,_4),1_ >= 0
Q_Penta,Biological_E,(4,_4),2_ >= 0
Q_Penta,Biological_E,(4,_4),3_ >= 0
Q_Penta,Biological_E,(4,_5),1_ >= 0
Q_Penta,Biological_E,(4,_5),2_ >= 0
Q_Penta,Biological_E,(4,_5),3_ >= 0
Q_Penta,Biological_E,(4,_6),1_ >= 0
Q_Penta,Biological_E,(4,_6),2_ >= 0
Q_Penta,Biological_E,(4,_6),3_ >= 0
Q_Penta,Biological_E,(4,_7),1_ >= 0
Q_Penta,Biological_E,(4,_7),2_ >= 0
Q_Penta,Biological_E,(4,_7),3_ >= 0
Q_Penta,Biological_E,(4,_8),1_ >= 0
Q_Penta,Biological_E,(4,_8),2_ >= 0
Q_Penta,Biological_E,(4,_8),3_ >= 0
Q_Penta,Biological_E,(5,_5),1_ >= 0
Q_Penta,Biological_E,(5,_5),2_ >= 0
Q_Penta,Biological_E,(5,_5),3_ >= 0
Q_Penta,Biological_E,(5,_6),1_ >= 0
Q_Penta,Biological_E,(5,_6),2_ >= 0
Q_Penta,Biological_E,(5,_6),3_ >= 0
Q_Penta,Biological_E,(5,_7),1_ >= 0
Q_Penta,Biological_E,(5,_7),2_ >= 0
Q_Penta,Biological_E,(5,_7),3_ >= 0
Q_Penta,Biological_E,(5,_8),1_ >= 0
Q_Penta,Biological_E,(5,_8),2_ >= 0
Q_Penta,Biological_E,(5,_8),3_ >= 0
Q_Penta,Biological_E,(5,_9),1_ >= 0
Q_Penta,Biological_E,(5,_9),2_ >= 0
Q_Penta,Biological_E,(5,_9),3_ >= 0
Q_Penta,Biological_E,(6,_6),1_ >= 0
Q_Penta,Biological_E,(6,_6),2_ >= 0
Q_Penta,Biological_E,(6,_6),3_ >= 0
Q_Penta,Biological_E,(6,_7),1_ >= 0
Q_Penta,Biological_E,(6,_7),2_ >= 0
Q_Penta,Biological_E,(6,_7),3_ >= 0
Q_Penta,Biological_E,(6,_8),1_ >= 0
Q_Penta,Biological_E,(6,_8),2_ >= 0
Q_Penta,Biological_E,(6,_8),3_ >= 0
Q_Penta,Biological_E,(6,_9),1_ >= 0
Q_Penta,Biological_E,(6,_9),2_ >= 0
Q_Penta,Biological_E,(6,_9),3_ >= 0
Q_Penta,Biological_E,(6,_10),1_ >= 0
Q_Penta,Biological_E,(6,_10),2_ >= 0
Q_Penta,Biological_E,(6,_10),3_ >= 0
Q_Penta,Biological_E,(7,_7),1_ >= 0
Q_Penta,Biological_E,(7,_7),2_ >= 0
Q_Penta,Biological_E,(7,_7),3_ >= 0
Q_Penta,Biological_E,(7,_8),1_ >= 0
Q_Penta,Biological_E,(7,_8),2_ >= 0
Q_Penta,Biological_E,(7,_8),3_ >= 0
Q_Penta,Biological_E,(7,_9),1_ >= 0
Q_Penta,Biological_E,(7,_9),2_ >= 0
Q_Penta,Biological_E,(7,_9),3_ >= 0
Q_Penta,Biological_E,(7,_10),1_ >= 0
Q_Penta,Biological_E,(7,_10),2_ >= 0
Q_Penta,Biological_E,(7,_10),3_ >= 0
Q_Penta,Biological_E,(8,_8),1_ >= 0
Q_Penta,Biological_E,(8,_8),2_ >= 0
Q_Penta,Biological_E,(8,_8),3_ >= 0
Q_Penta,Biological_E,(8,_9),1_ >= 0
Q_Penta,Biological_E,(8,_9),2_ >= 0
Q_Penta,Biological_E,(8,_9),3_ >= 0
Q_Penta,Biological_E,(8,_10),1_ >= 0
Q_Penta,Biological_E,(8,_10),2_ >= 0
Q_Penta,Biological_E,(8,_10),3_ >= 0
Q_Penta,Biological_E,(9,_9),1_ >= 0
Q_Penta,Biological_E,(9,_9),2_ >= 0
Q_Penta,Biological_E,(9,_9),3_ >= 0
Q_Penta,Biological_E,(9,_10),1_ >= 0
Q_Penta,Biological_E,(9,_10),2_ >= 0
Q_Penta,Biological_E,(9,_10),3_ >= 0
Q_Penta,Biological_E,(10,_10),1_ >= 0
Q_Penta,Biological_E,(10,_10),2_ >= 0
Q_Penta,Biological_E,(10,_10),3_ >= 0
Q_Penta,LG_Chem,(1,_1),1_ >= 0
Q_Penta,LG_Chem,(1,_1),2_ >= 0
Q_Penta,LG_Chem,(1,_1),3_ >= 0
Q_Penta,LG_Chem,(1,_2),1_ >= 0
Q_Penta,LG_Chem,(1,_2),2_ >= 0
Q_Penta,LG_Chem,(1,_2),3_ >= 0
Q_Penta,LG_Chem,(1,_3),1_ >= 0
Q_Penta,LG_Chem,(1,_3),2_ >= 0
Q_Penta,LG_Chem,(1,_3),3_ >= 0
Q_Penta,LG_Chem,(1,_4),1_ >= 0
Q_Penta,LG_Chem,(1,_4),2_ >= 0
Q_Penta,LG_Chem,(1,_4),3_ >= 0
Q_Penta,LG_Chem,(1,_5),1_ >= 0
Q_Penta,LG_Chem,(1,_5),2_ >= 0
Q_Penta,LG_Chem,(1,_5),3_ >= 0
Q_Penta,LG_Chem,(2,_2),1_ >= 0
Q_Penta,LG_Chem,(2,_2),2_ >= 0
Q_Penta,LG_Chem,(2,_2),3_ >= 0
Q_Penta,LG_Chem,(2,_3),1_ >= 0
Q_Penta,LG_Chem,(2,_3),2_ >= 0
Q_Penta,LG_Chem,(2,_3),3_ >= 0
Q_Penta,LG_Chem,(2,_4),1_ >= 0
Q_Penta,LG_Chem,(2,_4),2_ >= 0
Q_Penta,LG_Chem,(2,_4),3_ >= 0
Q_Penta,LG_Chem,(2,_5),1_ >= 0
Q_Penta,LG_Chem,(2,_5),2_ >= 0
Q_Penta,LG_Chem,(2,_5),3_ >= 0
Q_Penta,LG_Chem,(2,_6),1_ >= 0
Q_Penta,LG_Chem,(2,_6),2_ >= 0
Q_Penta,LG_Chem,(2,_6),3_ >= 0
Q_Penta,LG_Chem,(3,_3),1_ >= 0
Q_Penta,LG_Chem,(3,_3),2_ >= 0
Q_Penta,LG_Chem,(3,_3),3_ >= 0
Q_Penta,LG_Chem,(3,_4),1_ >= 0
Q_Penta,LG_Chem,(3,_4),2_ >= 0
Q_Penta,LG_Chem,(3,_4),3_ >= 0
Q_Penta,LG_Chem,(3,_5),1_ >= 0
Q_Penta,LG_Chem,(3,_5),2_ >= 0
Q_Penta,LG_Chem,(3,_5),3_ >= 0
Q_Penta,LG_Chem,(3,_6),1_ >= 0
Q_Penta,LG_Chem,(3,_6),2_ >= 0
Q_Penta,LG_Chem,(3,_6),3_ >= 0
Q_Penta,LG_Chem,(3,_7),1_ >= 0
Q_Penta,LG_Chem,(3,_7),2_ >= 0
Q_Penta,LG_Chem,(3,_7),3_ >= 0
Q_Penta,LG_Chem,(4,_4),1_ >= 0
Q_Penta,LG_Chem,(4,_4),2_ >= 0
Q_Penta,LG_Chem,(4,_4),3_ >= 0
Q_Penta,LG_Chem,(4,_5),1_ >= 0
Q_Penta,LG_Chem,(4,_5),2_ >= 0
Q_Penta,LG_Chem,(4,_5),3_ >= 0
Q_Penta,LG_Chem,(4,_6),1_ >= 0
Q_Penta,LG_Chem,(4,_6),2_ >= 0
Q_Penta,LG_Chem,(4,_6),3_ >= 0
Q_Penta,LG_Chem,(4,_7),1_ >= 0
Q_Penta,LG_Chem,(4,_7),2_ >= 0
Q_Penta,LG_Chem,(4,_7),3_ >= 0
Q_Penta,LG_Chem,(4,_8),1_ >= 0
Q_Penta,LG_Chem,(4,_8),2_ >= 0
Q_Penta,LG_Chem,(4,_8),3_ >= 0
Q_Penta,LG_Chem,(5,_5),1_ >= 0
Q_Penta,LG_Chem,(5,_5),2_ >= 0
Q_Penta,LG_Chem,(5,_5),3_ >= 0
Q_Penta,LG_Chem,(5,_6),1_ >= 0
Q_Penta,LG_Chem,(5,_6),2_ >= 0
Q_Penta,LG_Chem,(5,_6),3_ >= 0
Q_Penta,LG_Chem,(5,_7),1_ >= 0
Q_Penta,LG_Chem,(5,_7),2_ >= 0
Q_Penta,LG_Chem,(5,_7),3_ >= 0
Q_Penta,LG_Chem,(5,_8),1_ >= 0
Q_Penta,LG_Chem,(5,_8),2_ >= 0
Q_Penta,LG_Chem,(5,_8),3_ >= 0
Q_Penta,LG_Chem,(5,_9),1_ >= 0
Q_Penta,LG_Chem,(5,_9),2_ >= 0
Q_Penta,LG_Chem,(5,_9),3_ >= 0
Q_Penta,LG_Chem,(6,_6),1_ >= 0
Q_Penta,LG_Chem,(6,_6),2_ >= 0
Q_Penta,LG_Chem,(6,_6),3_ >= 0
Q_Penta,LG_Chem,(6,_7),1_ >= 0
Q_Penta,LG_Chem,(6,_7),2_ >= 0
Q_Penta,LG_Chem,(6,_7),3_ >= 0
Q_Penta,LG_Chem,(6,_8),1_ >= 0
Q_Penta,LG_Chem,(6,_8),2_ >= 0
Q_Penta,LG_Chem,(6,_8),3_ >= 0
Q_Penta,LG_Chem,(6,_9),1_ >= 0
Q_Penta,LG_Chem,(6,_9),2_ >= 0
Q_Penta,LG_Chem,(6,_9),3_ >= 0
Q_Penta,LG_Chem,(6,_10),1_ >= 0
Q_Penta,LG_Chem,(6,_10),2_ >= 0
Q_Penta,LG_Chem,(6,_10),3_ >= 0
Q_Penta,LG_Chem,(7,_7),1_ >= 0
Q_Penta,LG_Chem,(7,_7),2_ >= 0
Q_Penta,LG_Chem,(7,_7),3_ >= 0
Q_Penta,LG_Chem,(7,_8),1_ >= 0
Q_Penta,LG_Chem,(7,_8),2_ >= 0
Q_Penta,LG_Chem,(7,_8),3_ >= 0
Q_Penta,LG_Chem,(7,_9),1_ >= 0
Q_Penta,LG_Chem,(7,_9),2_ >= 0
Q_Penta,LG_Chem,(7,_9),3_ >= 0
Q_Penta,LG_Chem,(7,_10),1_ >= 0
Q_Penta,LG_Chem,(7,_10),2_ >= 0
Q_Penta,LG_Chem,(7,_10),3_ >= 0
Q_Penta,LG_Chem,(8,_8),1_ >= 0
Q_Penta,LG_Chem,(8,_8),2_ >= 0
Q_Penta,LG_Chem,(8,_8),3_ >= 0
Q_Penta,LG_Chem,(8,_9),1_ >= 0
Q_Penta,LG_Chem,(8,_9),2_ >= 0
Q_Penta,LG_Chem,(8,_9),3_ >= 0
Q_Penta,LG_Chem,(8,_10),1_ >= 0
Q_Penta,LG_Chem,(8,_10),2_ >= 0
Q_Penta,LG_Chem,(8,_10),3_ >= 0
Q_Penta,LG_Chem,(9,_9),1_ >= 0
Q_Penta,LG_Chem,(9,_9),2_ >= 0
Q_Penta,LG_Chem,(9,_9),3_ >= 0
Q_Penta,LG_Chem,(9,_10),1_ >= 0
Q_Penta,LG_Chem,(9,_10),2_ >= 0
Q_Penta,LG_Chem,(9,_10),3_ >= 0
Q_Penta,LG_Chem,(10,_10),1_ >= 0
Q_Penta,LG_Chem,(10,_10),2_ >= 0
Q_Penta,LG_Chem,(10,_10),3_ >= 0
Q_Penta,Panacea_Biotec,(1,_1),1_ >= 0
Q_Penta,Panacea_Biotec,(1,_1),2_ >= 0
Q_Penta,Panacea_Biotec,(1,_1),3_ >= 0
Q_Penta,Panacea_Biotec,(1,_2),1_ >= 0
Q_Penta,Panacea_Biotec,(1,_2),2_ >= 0
Q_Penta,Panacea_Biotec,(1,_2),3_ >= 0
Q_Penta,Panacea_Biotec,(1,_3),1_ >= 0
Q_Penta,Panacea_Biotec,(1,_3),2_ >= 0
Q_Penta,Panacea_Biotec,(1,_3),3_ >= 0
Q_Penta,Panacea_Biotec,(1,_4),1_ >= 0
Q_Penta,Panacea_Biotec,(1,_4),2_ >= 0
Q_Penta,Panacea_Biotec,(1,_4),3_ >= 0
Q_Penta,Panacea_Biotec,(1,_5),1_ >= 0
Q_Penta,Panacea_Biotec,(1,_5),2_ >= 0
Q_Penta,Panacea_Biotec,(1,_5),3_ >= 0
Q_Penta,Panacea_Biotec,(2,_2),1_ >= 0
Q_Penta,Panacea_Biotec,(2,_2),2_ >= 0
Q_Penta,Panacea_Biotec,(2,_2),3_ >= 0
Q_Penta,Panacea_Biotec,(2,_3),1_ >= 0
Q_Penta,Panacea_Biotec,(2,_3),2_ >= 0
Q_Penta,Panacea_Biotec,(2,_3),3_ >= 0
Q_Penta,Panacea_Biotec,(2,_4),1_ >= 0
Q_Penta,Panacea_Biotec,(2,_4),2_ >= 0
Q_Penta,Panacea_Biotec,(2,_4),3_ >= 0
Q_Penta,Panacea_Biotec,(2,_5),1_ >= 0
Q_Penta,Panacea_Biotec,(2,_5),2_ >= 0
Q_Penta,Panacea_Biotec,(2,_5),3_ >= 0
Q_Penta,Panacea_Biotec,(2,_6),1_ >= 0
Q_Penta,Panacea_Biotec,(2,_6),2_ >= 0
Q_Penta,Panacea_Biotec,(2,_6),3_ >= 0
Q_Penta,Panacea_Biotec,(3,_3),1_ >= 0
Q_Penta,Panacea_Biotec,(3,_3),2_ >= 0
Q_Penta,Panacea_Biotec,(3,_3),3_ >= 0
Q_Penta,Panacea_Biotec,(3,_4),1_ >= 0
Q_Penta,Panacea_Biotec,(3,_4),2_ >= 0
Q_Penta,Panacea_Biotec,(3,_4),3_ >= 0
Q_Penta,Panacea_Biotec,(3,_5),1_ >= 0
Q_Penta,Panacea_Biotec,(3,_5),2_ >= 0
Q_Penta,Panacea_Biotec,(3,_5),3_ >= 0
Q_Penta,Panacea_Biotec,(3,_6),1_ >= 0
Q_Penta,Panacea_Biotec,(3,_6),2_ >= 0
Q_Penta,Panacea_Biotec,(3,_6),3_ >= 0
Q_Penta,Panacea_Biotec,(3,_7),1_ >= 0
Q_Penta,Panacea_Biotec,(3,_7),2_ >= 0
Q_Penta,Panacea_Biotec,(3,_7),3_ >= 0
Q_Penta,Panacea_Biotec,(4,_4),1_ >= 0
Q_Penta,Panacea_Biotec,(4,_4),2_ >= 0
Q_Penta,Panacea_Biotec,(4,_4),3_ >= 0
Q_Penta,Panacea_Biotec,(4,_5),1_ >= 0
Q_Penta,Panacea_Biotec,(4,_5),2_ >= 0
Q_Penta,Panacea_Biotec,(4,_5),3_ >= 0
Q_Penta,Panacea_Biotec,(4,_6),1_ >= 0
Q_Penta,Panacea_Biotec,(4,_6),2_ >= 0
Q_Penta,Panacea_Biotec,(4,_6),3_ >= 0
Q_Penta,Panacea_Biotec,(4,_7),1_ >= 0
Q_Penta,Panacea_Biotec,(4,_7),2_ >= 0
Q_Penta,Panacea_Biotec,(4,_7),3_ >= 0
Q_Penta,Panacea_Biotec,(4,_8),1_ >= 0
Q_Penta,Panacea_Biotec,(4,_8),2_ >= 0
Q_Penta,Panacea_Biotec,(4,_8),3_ >= 0
Q_Penta,Panacea_Biotec,(5,_5),1_ >= 0
Q_Penta,Panacea_Biotec,(5,_5),2_ >= 0
Q_Penta,Panacea_Biotec,(5,_5),3_ >= 0
Q_Penta,Panacea_Biotec,(5,_6),1_ >= 0
Q_Penta,Panacea_Biotec,(5,_6),2_ >= 0
Q_Penta,Panacea_Biotec,(5,_6),3_ >= 0
Q_Penta,Panacea_Biotec,(5,_7),1_ >= 0
Q_Penta,Panacea_Biotec,(5,_7),2_ >= 0
Q_Penta,Panacea_Biotec,(5,_7),3_ >= 0
Q_Penta,Panacea_Biotec,(5,_8),1_ >= 0
Q_Penta,Panacea_Biotec,(5,_8),2_ >= 0
Q_Penta,Panacea_Biotec,(5,_8),3_ >= 0
Q_Penta,Panacea_Biotec,(5,_9),1_ >= 0
Q_Penta,Panacea_Biotec,(5,_9),2_ >= 0
Q_Penta,Panacea_Biotec,(5,_9),3_ >= 0
Q_Penta,Panacea_Biotec,(6,_6),1_ >= 0
Q_Penta,Panacea_Biotec,(6,_6),2_ >= 0
Q_Penta,Panacea_Biotec,(6,_6),3_ >= 0
Q_Penta,Panacea_Biotec,(6,_7),1_ >= 0
Q_Penta,Panacea_Biotec,(6,_7),2_ >= 0
Q_Penta,Panacea_Biotec,(6,_7),3_ >= 0
Q_Penta,Panacea_Biotec,(6,_8),1_ >= 0
Q_Penta,Panacea_Biotec,(6,_8),2_ >= 0
Q_Penta,Panacea_Biotec,(6,_8),3_ >= 0
Q_Penta,Panacea_Biotec,(6,_9),1_ >= 0
Q_Penta,Panacea_Biotec,(6,_9),2_ >= 0
Q_Penta,Panacea_Biotec,(6,_9),3_ >= 0
Q_Penta,Panacea_Biotec,(6,_10),1_ >= 0
Q_Penta,Panacea_Biotec,(6,_10),2_ >= 0
Q_Penta,Panacea_Biotec,(6,_10),3_ >= 0
Q_Penta,Panacea_Biotec,(7,_7),1_ >= 0
Q_Penta,Panacea_Biotec,(7,_7),2_ >= 0
Q_Penta,Panacea_Biotec,(7,_7),3_ >= 0
Q_Penta,Panacea_Biotec,(7,_8),1_ >= 0
Q_Penta,Panacea_Biotec,(7,_8),2_ >= 0
Q_Penta,Panacea_Biotec,(7,_8),3_ >= 0
Q_Penta,Panacea_Biotec,(7,_9),1_ >= 0
Q_Penta,Panacea_Biotec,(7,_9),2_ >= 0
Q_Penta,Panacea_Biotec,(7,_9),3_ >= 0
Q_Penta,Panacea_Biotec,(7,_10),1_ >= 0
Q_Penta,Panacea_Biotec,(7,_10),2_ >= 0
Q_Penta,Panacea_Biotec,(7,_10),3_ >= 0
Q_Penta,Panacea_Biotec,(8,_8),1_ >= 0
Q_Penta,Panacea_Biotec,(8,_8),2_ >= 0
Q_Penta,Panacea_Biotec,(8,_8),3_ >= 0
Q_Penta,Panacea_Biotec,(8,_9),1_ >= 0
Q_Penta,Panacea_Biotec,(8,_9),2_ >= 0
Q_Penta,Panacea_Biotec,(8,_9),3_ >= 0
Q_Penta,Panacea_Biotec,(8,_10),1_ >= 0
Q_Penta,Panacea_Biotec,(8,_10),2_ >= 0
Q_Penta,Panacea_Biotec,(8,_10),3_ >= 0
Q_Penta,Panacea_Biotec,(9,_9),1_ >= 0
Q_Penta,Panacea_Biotec,(9,_9),2_ >= 0
Q_Penta,Panacea_Biotec,(9,_9),3_ >= 0
Q_Penta,Panacea_Biotec,(9,_10),1_ >= 0
Q_Penta,Panacea_Biotec,(9,_10),2_ >= 0
Q_Penta,Panacea_Biotec,(9,_10),3_ >= 0
Q_Penta,Panacea_Biotec,(10,_10),1_ >= 0
Q_Penta,Panacea_Biotec,(10,_10),2_ >= 0
Q_Penta,Panacea_Biotec,(10,_10),3_ >= 0
Q_Hexa,Sanofi,(1,_1),1_ >= 0
Q_Hexa,Sanofi,(1,_1),2_ >= 0
Q_Hexa,Sanofi,(1,_1),3_ >= 0
Q_Hexa,Sanofi,(1,_2),1_ >= 0
Q_Hexa,Sanofi,(1,_2),2_ >= 0
Q_Hexa,Sanofi,(1,_2),3_ >= 0
Q_Hexa,Sanofi,(1,_3),1_ >= 0
Q_Hexa,Sanofi,(1,_3),2_ >= 0
Q_Hexa,Sanofi,(1,_3),3_ >= 0
Q_Hexa,Sanofi,(1,_4),1_ >= 0
Q_Hexa,Sanofi,(1,_4),2_ >= 0
Q_Hexa,Sanofi,(1,_4),3_ >= 0
Q_Hexa,Sanofi,(1,_5),1_ >= 0
Q_Hexa,Sanofi,(1,_5),2_ >= 0
Q_Hexa,Sanofi,(1,_5),3_ >= 0
Q_Hexa,Sanofi,(2,_2),1_ >= 0
Q_Hexa,Sanofi,(2,_2),2_ >= 0
Q_Hexa,Sanofi,(2,_2),3_ >= 0
Q_Hexa,Sanofi,(2,_3),1_ >= 0
Q_Hexa,Sanofi,(2,_3),2_ >= 0
Q_Hexa,Sanofi,(2,_3),3_ >= 0
Q_Hexa,Sanofi,(2,_4),1_ >= 0
Q_Hexa,Sanofi,(2,_4),2_ >= 0
Q_Hexa,Sanofi,(2,_4),3_ >= 0
Q_Hexa,Sanofi,(2,_5),1_ >= 0
Q_Hexa,Sanofi,(2,_5),2_ >= 0
Q_Hexa,Sanofi,(2,_5),3_ >= 0
Q_Hexa,Sanofi,(2,_6),1_ >= 0
Q_Hexa,Sanofi,(2,_6),2_ >= 0
Q_Hexa,Sanofi,(2,_6),3_ >= 0
Q_Hexa,Sanofi,(3,_3),1_ >= 0
Q_Hexa,Sanofi,(3,_3),2_ >= 0
Q_Hexa,Sanofi,(3,_3),3_ >= 0
Q_Hexa,Sanofi,(3,_4),1_ >= 0
Q_Hexa,Sanofi,(3,_4),2_ >= 0
Q_Hexa,Sanofi,(3,_4),3_ >= 0
Q_Hexa,Sanofi,(3,_5),1_ >= 0
Q_Hexa,Sanofi,(3,_5),2_ >= 0
Q_Hexa,Sanofi,(3,_5),3_ >= 0
Q_Hexa,Sanofi,(3,_6),1_ >= 0
Q_Hexa,Sanofi,(3,_6),2_ >= 0
Q_Hexa,Sanofi,(3,_6),3_ >= 0
Q_Hexa,Sanofi,(3,_7),1_ >= 0
Q_Hexa,Sanofi,(3,_7),2_ >= 0
Q_Hexa,Sanofi,(3,_7),3_ >= 0
Q_Hexa,Sanofi,(4,_4),1_ >= 0
Q_Hexa,Sanofi,(4,_4),2_ >= 0
Q_Hexa,Sanofi,(4,_4),3_ >= 0
Q_Hexa,Sanofi,(4,_5),1_ >= 0
Q_Hexa,Sanofi,(4,_5),2_ >= 0
Q_Hexa,Sanofi,(4,_5),3_ >= 0
Q_Hexa,Sanofi,(4,_6),1_ >= 0
Q_Hexa,Sanofi,(4,_6),2_ >= 0
Q_Hexa,Sanofi,(4,_6),3_ >= 0
Q_Hexa,Sanofi,(4,_7),1_ >= 0
Q_Hexa,Sanofi,(4,_7),2_ >= 0
Q_Hexa,Sanofi,(4,_7),3_ >= 0
Q_Hexa,Sanofi,(4,_8),1_ >= 0
Q_Hexa,Sanofi,(4,_8),2_ >= 0
Q_Hexa,Sanofi,(4,_8),3_ >= 0
Q_Hexa,Sanofi,(5,_5),1_ >= 0
Q_Hexa,Sanofi,(5,_5),2_ >= 0
Q_Hexa,Sanofi,(5,_5),3_ >= 0
Q_Hexa,Sanofi,(5,_6),1_ >= 0
Q_Hexa,Sanofi,(5,_6),2_ >= 0
Q_Hexa,Sanofi,(5,_6),3_ >= 0
Q_Hexa,Sanofi,(5,_7),1_ >= 0
Q_Hexa,Sanofi,(5,_7),2_ >= 0
Q_Hexa,Sanofi,(5,_7),3_ >= 0
Q_Hexa,Sanofi,(5,_8),1_ >= 0
Q_Hexa,Sanofi,(5,_8),2_ >= 0
Q_Hexa,Sanofi,(5,_8),3_ >= 0
Q_Hexa,Sanofi,(5,_9),1_ >= 0
Q_Hexa,Sanofi,(5,_9),2_ >= 0
Q_Hexa,Sanofi,(5,_9),3_ >= 0
Q_Hexa,Sanofi,(6,_6),1_ >= 0
Q_Hexa,Sanofi,(6,_6),2_ >= 0
Q_Hexa,Sanofi,(6,_6),3_ >= 0
Q_Hexa,Sanofi,(6,_7),1_ >= 0
Q_Hexa,Sanofi,(6,_7),2_ >= 0
Q_Hexa,Sanofi,(6,_7),3_ >= 0
Q_Hexa,Sanofi,(6,_8),1_ >= 0
Q_Hexa,Sanofi,(6,_8),2_ >= 0
Q_Hexa,Sanofi,(6,_8),3_ >= 0
Q_Hexa,Sanofi,(6,_9),1_ >= 0
Q_Hexa,Sanofi,(6,_9),2_ >= 0
Q_Hexa,Sanofi,(6,_9),3_ >= 0
Q_Hexa,Sanofi,(6,_10),1_ >= 0
Q_Hexa,Sanofi,(6,_10),2_ >= 0
Q_Hexa,Sanofi,(6,_10),3_ >= 0
Q_Hexa,Sanofi,(7,_7),1_ >= 0
Q_Hexa,Sanofi,(7,_7),2_ >= 0
Q_Hexa,Sanofi,(7,_7),3_ >= 0
Q_Hexa,Sanofi,(7,_8),1_ >= 0
Q_Hexa,Sanofi,(7,_8),2_ >= 0
Q_Hexa,Sanofi,(7,_8),3_ >= 0
Q_Hexa,Sanofi,(7,_9),1_ >= 0
Q_Hexa,Sanofi,(7,_9),2_ >= 0
Q_Hexa,Sanofi,(7,_9),3_ >= 0
Q_Hexa,Sanofi,(7,_10),1_ >= 0
Q_Hexa,Sanofi,(7,_10),2_ >= 0
Q_Hexa,Sanofi,(7,_10),3_ >= 0
Q_Hexa,Sanofi,(8,_8),1_ >= 0
Q_Hexa,Sanofi,(8,_8),2_ >= 0
Q_Hexa,Sanofi,(8,_8),3_ >= 0
Q_Hexa,Sanofi,(8,_9),1_ >= 0
Q_Hexa,Sanofi,(8,_9),2_ >= 0
Q_Hexa,Sanofi,(8,_9),3_ >= 0
Q_Hexa,Sanofi,(8,_10),1_ >= 0
Q_Hexa,Sanofi,(8,_10),2_ >= 0
Q_Hexa,Sanofi,(8,_10),3_ >= 0
Q_Hexa,Sanofi,(9,_9),1_ >= 0
Q_Hexa,Sanofi,(9,_9),2_ >= 0
Q_Hexa,Sanofi,(9,_9),3_ >= 0
Q_Hexa,Sanofi,(9,_10),1_ >= 0
Q_Hexa,Sanofi,(9,_10),2_ >= 0
Q_Hexa,Sanofi,(9,_10),3_ >= 0
Q_Hexa,Sanofi,(10,_10),1_ >= 0
Q_Hexa,Sanofi,(10,_10),2_ >= 0
Q_Hexa,Sanofi,(10,_10),3_ >= 0
Q_HPV,GSK,(1,_1),1_ >= 0
Q_HPV,GSK,(1,_1),2_ >= 0
Q_HPV,GSK,(1,_1),3_ >= 0
Q_HPV,GSK,(1,_2),1_ >= 0
Q_HPV,GSK,(1,_2),2_ >= 0
Q_HPV,GSK,(1,_2),3_ >= 0
Q_HPV,GSK,(1,_3),1_ >= 0
Q_HPV,GSK,(1,_3),2_ >= 0
Q_HPV,GSK,(1,_3),3_ >= 0
Q_HPV,GSK,(1,_4),1_ >= 0
Q_HPV,GSK,(1,_4),2_ >= 0
Q_HPV,GSK,(1,_4),3_ >= 0
Q_HPV,GSK,(1,_5),1_ >= 0
Q_HPV,GSK,(1,_5),2_ >= 0
Q_HPV,GSK,(1,_5),3_ >= 0
Q_HPV,GSK,(2,_2),1_ >= 0
Q_HPV,GSK,(2,_2),2_ >= 0
Q_HPV,GSK,(2,_2),3_ >= 0
Q_HPV,GSK,(2,_3),1_ >= 0
Q_HPV,GSK,(2,_3),2_ >= 0
Q_HPV,GSK,(2,_3),3_ >= 0
Q_HPV,GSK,(2,_4),1_ >= 0
Q_HPV,GSK,(2,_4),2_ >= 0
Q_HPV,GSK,(2,_4),3_ >= 0
Q_HPV,GSK,(2,_5),1_ >= 0
Q_HPV,GSK,(2,_5),2_ >= 0
Q_HPV,GSK,(2,_5),3_ >= 0
Q_HPV,GSK,(2,_6),1_ >= 0
Q_HPV,GSK,(2,_6),2_ >= 0
Q_HPV,GSK,(2,_6),3_ >= 0
Q_HPV,GSK,(3,_3),1_ >= 0
Q_HPV,GSK,(3,_3),2_ >= 0
Q_HPV,GSK,(3,_3),3_ >= 0
Q_HPV,GSK,(3,_4),1_ >= 0
Q_HPV,GSK,(3,_4),2_ >= 0
Q_HPV,GSK,(3,_4),3_ >= 0
Q_HPV,GSK,(3,_5),1_ >= 0
Q_HPV,GSK,(3,_5),2_ >= 0
Q_HPV,GSK,(3,_5),3_ >= 0
Q_HPV,GSK,(3,_6),1_ >= 0
Q_HPV,GSK,(3,_6),2_ >= 0
Q_HPV,GSK,(3,_6),3_ >= 0
Q_HPV,GSK,(3,_7),1_ >= 0
Q_HPV,GSK,(3,_7),2_ >= 0
Q_HPV,GSK,(3,_7),3_ >= 0
Q_HPV,GSK,(4,_4),1_ >= 0
Q_HPV,GSK,(4,_4),2_ >= 0
Q_HPV,GSK,(4,_4),3_ >= 0
Q_HPV,GSK,(4,_5),1_ >= 0
Q_HPV,GSK,(4,_5),2_ >= 0
Q_HPV,GSK,(4,_5),3_ >= 0
Q_HPV,GSK,(4,_6),1_ >= 0
Q_HPV,GSK,(4,_6),2_ >= 0
Q_HPV,GSK,(4,_6),3_ >= 0
Q_HPV,GSK,(4,_7),1_ >= 0
Q_HPV,GSK,(4,_7),2_ >= 0
Q_HPV,GSK,(4,_7),3_ >= 0
Q_HPV,GSK,(4,_8),1_ >= 0
Q_HPV,GSK,(4,_8),2_ >= 0
Q_HPV,GSK,(4,_8),3_ >= 0
Q_HPV,GSK,(5,_5),1_ >= 0
Q_HPV,GSK,(5,_5),2_ >= 0
Q_HPV,GSK,(5,_5),3_ >= 0
Q_HPV,GSK,(5,_6),1_ >= 0
Q_HPV,GSK,(5,_6),2_ >= 0
Q_HPV,GSK,(5,_6),3_ >= 0
Q_HPV,GSK,(5,_7),1_ >= 0
Q_HPV,GSK,(5,_7),2_ >= 0
Q_HPV,GSK,(5,_7),3_ >= 0
Q_HPV,GSK,(5,_8),1_ >= 0
Q_HPV,GSK,(5,_8),2_ >= 0
Q_HPV,GSK,(5,_8),3_ >= 0
Q_HPV,GSK,(5,_9),1_ >= 0
Q_HPV,GSK,(5,_9),2_ >= 0
Q_HPV,GSK,(5,_9),3_ >= 0
Q_HPV,GSK,(6,_6),1_ >= 0
Q_HPV,GSK,(6,_6),2_ >= 0
Q_HPV,GSK,(6,_6),3_ >= 0
Q_HPV,GSK,(6,_7),1_ >= 0
Q_HPV,GSK,(6,_7),2_ >= 0
Q_HPV,GSK,(6,_7),3_ >= 0
Q_HPV,GSK,(6,_8),1_ >= 0
Q_HPV,GSK,(6,_8),2_ >= 0
Q_HPV,GSK,(6,_8),3_ >= 0
Q_HPV,GSK,(6,_9),1_ >= 0
Q_HPV,GSK,(6,_9),2_ >= 0
Q_HPV,GSK,(6,_9),3_ >= 0
Q_HPV,GSK,(6,_10),1_ >= 0
Q_HPV,GSK,(6,_10),2_ >= 0
Q_HPV,GSK,(6,_10),3_ >= 0
Q_HPV,GSK,(7,_7),1_ >= 0
Q_HPV,GSK,(7,_7),2_ >= 0
Q_HPV,GSK,(7,_7),3_ >= 0
Q_HPV,GSK,(7,_8),1_ >= 0
Q_HPV,GSK,(7,_8),2_ >= 0
Q_HPV,GSK,(7,_8),3_ >= 0
Q_HPV,GSK,(7,_9),1_ >= 0
Q_HPV,GSK,(7,_9),2_ >= 0
Q_HPV,GSK,(7,_9),3_ >= 0
Q_HPV,GSK,(7,_10),1_ >= 0
Q_HPV,GSK,(7,_10),2_ >= 0
Q_HPV,GSK,(7,_10),3_ >= 0
Q_HPV,GSK,(8,_8),1_ >= 0
Q_HPV,GSK,(8,_8),2_ >= 0
Q_HPV,GSK,(8,_8),3_ >= 0
Q_HPV,GSK,(8,_9),1_ >= 0
Q_HPV,GSK,(8,_9),2_ >= 0
Q_HPV,GSK,(8,_9),3_ >= 0
Q_HPV,GSK,(8,_10),1_ >= 0
Q_HPV,GSK,(8,_10),2_ >= 0
Q_HPV,GSK,(8,_10),3_ >= 0
Q_HPV,GSK,(9,_9),1_ >= 0
Q_HPV,GSK,(9,_9),2_ >= 0
Q_HPV,GSK,(9,_9),3_ >= 0
Q_HPV,GSK,(9,_10),1_ >= 0
Q_HPV,GSK,(9,_10),2_ >= 0
Q_HPV,GSK,(9,_10),3_ >= 0
Q_HPV,GSK,(10,_10),1_ >= 0
Q_HPV,GSK,(10,_10),2_ >= 0
Q_HPV,GSK,(10,_10),3_ >= 0
Q_HPV,Merck_Sharp,(1,_1),1_ >= 0
Q_HPV,Merck_Sharp,(1,_1),2_ >= 0
Q_HPV,Merck_Sharp,(1,_1),3_ >= 0
Q_HPV,Merck_Sharp,(1,_2),1_ >= 0
Q_HPV,Merck_Sharp,(1,_2),2_ >= 0
Q_HPV,Merck_Sharp,(1,_2),3_ >= 0
Q_HPV,Merck_Sharp,(1,_3),1_ >= 0
Q_HPV,Merck_Sharp,(1,_3),2_ >= 0
Q_HPV,Merck_Sharp,(1,_3),3_ >= 0
Q_HPV,Merck_Sharp,(1,_4),1_ >= 0
Q_HPV,Merck_Sharp,(1,_4),2_ >= 0
Q_HPV,Merck_Sharp,(1,_4),3_ >= 0
Q_HPV,Merck_Sharp,(1,_5),1_ >= 0
Q_HPV,Merck_Sharp,(1,_5),2_ >= 0
Q_HPV,Merck_Sharp,(1,_5),3_ >= 0
Q_HPV,Merck_Sharp,(2,_2),1_ >= 0
Q_HPV,Merck_Sharp,(2,_2),2_ >= 0
Q_HPV,Merck_Sharp,(2,_2),3_ >= 0
Q_HPV,Merck_Sharp,(2,_3),1_ >= 0
Q_HPV,Merck_Sharp,(2,_3),2_ >= 0
Q_HPV,Merck_Sharp,(2,_3),3_ >= 0
Q_HPV,Merck_Sharp,(2,_4),1_ >= 0
Q_HPV,Merck_Sharp,(2,_4),2_ >= 0
Q_HPV,Merck_Sharp,(2,_4),3_ >= 0
Q_HPV,Merck_Sharp,(2,_5),1_ >= 0
Q_HPV,Merck_Sharp,(2,_5),2_ >= 0
Q_HPV,Merck_Sharp,(2,_5),3_ >= 0
Q_HPV,Merck_Sharp,(2,_6),1_ >= 0
Q_HPV,Merck_Sharp,(2,_6),2_ >= 0
Q_HPV,Merck_Sharp,(2,_6),3_ >= 0
Q_HPV,Merck_Sharp,(3,_3),1_ >= 0
Q_HPV,Merck_Sharp,(3,_3),2_ >= 0
Q_HPV,Merck_Sharp,(3,_3),3_ >= 0
Q_HPV,Merck_Sharp,(3,_4),1_ >= 0
Q_HPV,Merck_Sharp,(3,_4),2_ >= 0
Q_HPV,Merck_Sharp,(3,_4),3_ >= 0
Q_HPV,Merck_Sharp,(3,_5),1_ >= 0
Q_HPV,Merck_Sharp,(3,_5),2_ >= 0
Q_HPV,Merck_Sharp,(3,_5),3_ >= 0
Q_HPV,Merck_Sharp,(3,_6),1_ >= 0
Q_HPV,Merck_Sharp,(3,_6),2_ >= 0
Q_HPV,Merck_Sharp,(3,_6),3_ >= 0
Q_HPV,Merck_Sharp,(3,_7),1_ >= 0
Q_HPV,Merck_Sharp,(3,_7),2_ >= 0
Q_HPV,Merck_Sharp,(3,_7),3_ >= 0
Q_HPV,Merck_Sharp,(4,_4),1_ >= 0
Q_HPV,Merck_Sharp,(4,_4),2_ >= 0
Q_HPV,Merck_Sharp,(4,_4),3_ >= 0
Q_HPV,Merck_Sharp,(4,_5),1_ >= 0
Q_HPV,Merck_Sharp,(4,_5),2_ >= 0
Q_HPV,Merck_Sharp,(4,_5),3_ >= 0
Q_HPV,Merck_Sharp,(4,_6),1_ >= 0
Q_HPV,Merck_Sharp,(4,_6),2_ >= 0
Q_HPV,Merck_Sharp,(4,_6),3_ >= 0
Q_HPV,Merck_Sharp,(4,_7),1_ >= 0
Q_HPV,Merck_Sharp,(4,_7),2_ >= 0
Q_HPV,Merck_Sharp,(4,_7),3_ >= 0
Q_HPV,Merck_Sharp,(4,_8),1_ >= 0
Q_HPV,Merck_Sharp,(4,_8),2_ >= 0
Q_HPV,Merck_Sharp,(4,_8),3_ >= 0
Q_HPV,Merck_Sharp,(5,_5),1_ >= 0
Q_HPV,Merck_Sharp,(5,_5),2_ >= 0
Q_HPV,Merck_Sharp,(5,_5),3_ >= 0
Q_HPV,Merck_Sharp,(5,_6),1_ >= 0
Q_HPV,Merck_Sharp,(5,_6),2_ >= 0
Q_HPV,Merck_Sharp,(5,_6),3_ >= 0
Q_HPV,Merck_Sharp,(5,_7),1_ >= 0
Q_HPV,Merck_Sharp,(5,_7),2_ >= 0
Q_HPV,Merck_Sharp,(5,_7),3_ >= 0
Q_HPV,Merck_Sharp,(5,_8),1_ >= 0
Q_HPV,Merck_Sharp,(5,_8),2_ >= 0
Q_HPV,Merck_Sharp,(5,_8),3_ >= 0
Q_HPV,Merck_Sharp,(5,_9),1_ >= 0
Q_HPV,Merck_Sharp,(5,_9),2_ >= 0
Q_HPV,Merck_Sharp,(5,_9),3_ >= 0
Q_HPV,Merck_Sharp,(6,_6),1_ >= 0
Q_HPV,Merck_Sharp,(6,_6),2_ >= 0
Q_HPV,Merck_Sharp,(6,_6),3_ >= 0
Q_HPV,Merck_Sharp,(6,_7),1_ >= 0
Q_HPV,Merck_Sharp,(6,_7),2_ >= 0
Q_HPV,Merck_Sharp,(6,_7),3_ >= 0
Q_HPV,Merck_Sharp,(6,_8),1_ >= 0
Q_HPV,Merck_Sharp,(6,_8),2_ >= 0
Q_HPV,Merck_Sharp,(6,_8),3_ >= 0
Q_HPV,Merck_Sharp,(6,_9),1_ >= 0
Q_HPV,Merck_Sharp,(6,_9),2_ >= 0
Q_HPV,Merck_Sharp,(6,_9),3_ >= 0
Q_HPV,Merck_Sharp,(6,_10),1_ >= 0
Q_HPV,Merck_Sharp,(6,_10),2_ >= 0
Q_HPV,Merck_Sharp,(6,_10),3_ >= 0
Q_HPV,Merck_Sharp,(7,_7),1_ >= 0
Q_HPV,Merck_Sharp,(7,_7),2_ >= 0
Q_HPV,Merck_Sharp,(7,_7),3_ >= 0
Q_HPV,Merck_Sharp,(7,_8),1_ >= 0
Q_HPV,Merck_Sharp,(7,_8),2_ >= 0
Q_HPV,Merck_Sharp,(7,_8),3_ >= 0
Q_HPV,Merck_Sharp,(7,_9),1_ >= 0
Q_HPV,Merck_Sharp,(7,_9),2_ >= 0
Q_HPV,Merck_Sharp,(7,_9),3_ >= 0
Q_HPV,Merck_Sharp,(7,_10),1_ >= 0
Q_HPV,Merck_Sharp,(7,_10),2_ >= 0
Q_HPV,Merck_Sharp,(7,_10),3_ >= 0
Q_HPV,Merck_Sharp,(8,_8),1_ >= 0
Q_HPV,Merck_Sharp,(8,_8),2_ >= 0
Q_HPV,Merck_Sharp,(8,_8),3_ >= 0
Q_HPV,Merck_Sharp,(8,_9),1_ >= 0
Q_HPV,Merck_Sharp,(8,_9),2_ >= 0
Q_HPV,Merck_Sharp,(8,_9),3_ >= 0
Q_HPV,Merck_Sharp,(8,_10),1_ >= 0
Q_HPV,Merck_Sharp,(8,_10),2_ >= 0
Q_HPV,Merck_Sharp,(8,_10),3_ >= 0
Q_HPV,Merck_Sharp,(9,_9),1_ >= 0
Q_HPV,Merck_Sharp,(9,_9),2_ >= 0
Q_HPV,Merck_Sharp,(9,_9),3_ >= 0
Q_HPV,Merck_Sharp,(9,_10),1_ >= 0
Q_HPV,Merck_Sharp,(9,_10),2_ >= 0
Q_HPV,Merck_Sharp,(9,_10),3_ >= 0
Q_HPV,Merck_Sharp,(10,_10),1_ >= 0
Q_HPV,Merck_Sharp,(10,_10),2_ >= 0
Q_HPV,Merck_Sharp,(10,_10),3_ >= 0
Q_HPV,China_National,(1,_1),1_ >= 0
Q_HPV,China_National,(1,_1),2_ >= 0
Q_HPV,China_National,(1,_1),3_ >= 0
Q_HPV,China_National,(1,_2),1_ >= 0
Q_HPV,China_National,(1,_2),2_ >= 0
Q_HPV,China_National,(1,_2),3_ >= 0
Q_HPV,China_National,(1,_3),1_ >= 0
Q_HPV,China_National,(1,_3),2_ >= 0
Q_HPV,China_National,(1,_3),3_ >= 0
Q_HPV,China_National,(1,_4),1_ >= 0
Q_HPV,China_National,(1,_4),2_ >= 0
Q_HPV,China_National,(1,_4),3_ >= 0
Q_HPV,China_National,(1,_5),1_ >= 0
Q_HPV,China_National,(1,_5),2_ >= 0
Q_HPV,China_National,(1,_5),3_ >= 0
Q_HPV,China_National,(2,_2),1_ >= 0
Q_HPV,China_National,(2,_2),2_ >= 0
Q_HPV,China_National,(2,_2),3_ >= 0
Q_HPV,China_National,(2,_3),1_ >= 0
Q_HPV,China_National,(2,_3),2_ >= 0
Q_HPV,China_National,(2,_3),3_ >= 0
Q_HPV,China_National,(2,_4),1_ >= 0
Q_HPV,China_National,(2,_4),2_ >= 0
Q_HPV,China_National,(2,_4),3_ >= 0
Q_HPV,China_National,(2,_5),1_ >= 0
Q_HPV,China_National,(2,_5),2_ >= 0
Q_HPV,China_National,(2,_5),3_ >= 0
Q_HPV,China_National,(2,_6),1_ >= 0
Q_HPV,China_National,(2,_6),2_ >= 0
Q_HPV,China_National,(2,_6),3_ >= 0
Q_HPV,China_National,(3,_3),1_ >= 0
Q_HPV,China_National,(3,_3),2_ >= 0
Q_HPV,China_National,(3,_3),3_ >= 0
Q_HPV,China_National,(3,_4),1_ >= 0
Q_HPV,China_National,(3,_4),2_ >= 0
Q_HPV,China_National,(3,_4),3_ >= 0
Q_HPV,China_National,(3,_5),1_ >= 0
Q_HPV,China_National,(3,_5),2_ >= 0
Q_HPV,China_National,(3,_5),3_ >= 0
Q_HPV,China_National,(3,_6),1_ >= 0
Q_HPV,China_National,(3,_6),2_ >= 0
Q_HPV,China_National,(3,_6),3_ >= 0
Q_HPV,China_National,(3,_7),1_ >= 0
Q_HPV,China_National,(3,_7),2_ >= 0
Q_HPV,China_National,(3,_7),3_ >= 0
Q_HPV,China_National,(4,_4),1_ >= 0
Q_HPV,China_National,(4,_4),2_ >= 0
Q_HPV,China_National,(4,_4),3_ >= 0
Q_HPV,China_National,(4,_5),1_ >= 0
Q_HPV,China_National,(4,_5),2_ >= 0
Q_HPV,China_National,(4,_5),3_ >= 0
Q_HPV,China_National,(4,_6),1_ >= 0
Q_HPV,China_National,(4,_6),2_ >= 0
Q_HPV,China_National,(4,_6),3_ >= 0
Q_HPV,China_National,(4,_7),1_ >= 0
Q_HPV,China_National,(4,_7),2_ >= 0
Q_HPV,China_National,(4,_7),3_ >= 0
Q_HPV,China_National,(4,_8),1_ >= 0
Q_HPV,China_National,(4,_8),2_ >= 0
Q_HPV,China_National,(4,_8),3_ >= 0
Q_HPV,China_National,(5,_5),1_ >= 0
Q_HPV,China_National,(5,_5),2_ >= 0
Q_HPV,China_National,(5,_5),3_ >= 0
Q_HPV,China_National,(5,_6),1_ >= 0
Q_HPV,China_National,(5,_6),2_ >= 0
Q_HPV,China_National,(5,_6),3_ >= 0
Q_HPV,China_National,(5,_7),1_ >= 0
Q_HPV,China_National,(5,_7),2_ >= 0
Q_HPV,China_National,(5,_7),3_ >= 0
Q_HPV,China_National,(5,_8),1_ >= 0
Q_HPV,China_National,(5,_8),2_ >= 0
Q_HPV,China_National,(5,_8),3_ >= 0
Q_HPV,China_National,(5,_9),1_ >= 0
Q_HPV,China_National,(5,_9),2_ >= 0
Q_HPV,China_National,(5,_9),3_ >= 0
Q_HPV,China_National,(6,_6),1_ >= 0
Q_HPV,China_National,(6,_6),2_ >= 0
Q_HPV,China_National,(6,_6),3_ >= 0
Q_HPV,China_National,(6,_7),1_ >= 0
Q_HPV,China_National,(6,_7),2_ >= 0
Q_HPV,China_National,(6,_7),3_ >= 0
Q_HPV,China_National,(6,_8),1_ >= 0
Q_HPV,China_National,(6,_8),2_ >= 0
Q_HPV,China_National,(6,_8),3_ >= 0
Q_HPV,China_National,(6,_9),1_ >= 0
Q_HPV,China_National,(6,_9),2_ >= 0
Q_HPV,China_National,(6,_9),3_ >= 0
Q_HPV,China_National,(6,_10),1_ >= 0
Q_HPV,China_National,(6,_10),2_ >= 0
Q_HPV,China_National,(6,_10),3_ >= 0
Q_HPV,China_National,(7,_7),1_ >= 0
Q_HPV,China_National,(7,_7),2_ >= 0
Q_HPV,China_National,(7,_7),3_ >= 0
Q_HPV,China_National,(7,_8),1_ >= 0
Q_HPV,China_National,(7,_8),2_ >= 0
Q_HPV,China_National,(7,_8),3_ >= 0
Q_HPV,China_National,(7,_9),1_ >= 0
Q_HPV,China_National,(7,_9),2_ >= 0
Q_HPV,China_National,(7,_9),3_ >= 0
Q_HPV,China_National,(7,_10),1_ >= 0
Q_HPV,China_National,(7,_10),2_ >= 0
Q_HPV,China_National,(7,_10),3_ >= 0
Q_HPV,China_National,(8,_8),1_ >= 0
Q_HPV,China_National,(8,_8),2_ >= 0
Q_HPV,China_National,(8,_8),3_ >= 0
Q_HPV,China_National,(8,_9),1_ >= 0
Q_HPV,China_National,(8,_9),2_ >= 0
Q_HPV,China_National,(8,_9),3_ >= 0
Q_HPV,China_National,(8,_10),1_ >= 0
Q_HPV,China_National,(8,_10),2_ >= 0
Q_HPV,China_National,(8,_10),3_ >= 0
Q_HPV,China_National,(9,_9),1_ >= 0
Q_HPV,China_National,(9,_9),2_ >= 0
Q_HPV,China_National,(9,_9),3_ >= 0
Q_HPV,China_National,(9,_10),1_ >= 0
Q_HPV,China_National,(9,_10),2_ >= 0
Q_HPV,China_National,(9,_10),3_ >= 0
Q_HPV,China_National,(10,_10),1_ >= 0
Q_HPV,China_National,(10,_10),2_ >= 0
Q_HPV,China_National,(10,_10),3_ >= 0
Q_Rotavirus,Serum_Institute,(1,_1),1_ >= 0
Q_Rotavirus,Serum_Institute,(1,_1),2_ >= 0
Q_Rotavirus,Serum_Institute,(1,_1),3_ >= 0
Q_Rotavirus,Serum_Institute,(1,_2),1_ >= 0
Q_Rotavirus,Serum_Institute,(1,_2),2_ >= 0
Q_Rotavirus,Serum_Institute,(1,_2),3_ >= 0
Q_Rotavirus,Serum_Institute,(1,_3),1_ >= 0
Q_Rotavirus,Serum_Institute,(1,_3),2_ >= 0
Q_Rotavirus,Serum_Institute,(1,_3),3_ >= 0
Q_Rotavirus,Serum_Institute,(1,_4),1_ >= 0
Q_Rotavirus,Serum_Institute,(1,_4),2_ >= 0
Q_Rotavirus,Serum_Institute,(1,_4),3_ >= 0
Q_Rotavirus,Serum_Institute,(1,_5),1_ >= 0
Q_Rotavirus,Serum_Institute,(1,_5),2_ >= 0
Q_Rotavirus,Serum_Institute,(1,_5),3_ >= 0
Q_Rotavirus,Serum_Institute,(2,_2),1_ >= 0
Q_Rotavirus,Serum_Institute,(2,_2),2_ >= 0
Q_Rotavirus,Serum_Institute,(2,_2),3_ >= 0
Q_Rotavirus,Serum_Institute,(2,_3),1_ >= 0
Q_Rotavirus,Serum_Institute,(2,_3),2_ >= 0
Q_Rotavirus,Serum_Institute,(2,_3),3_ >= 0
Q_Rotavirus,Serum_Institute,(2,_4),1_ >= 0
Q_Rotavirus,Serum_Institute,(2,_4),2_ >= 0
Q_Rotavirus,Serum_Institute,(2,_4),3_ >= 0
Q_Rotavirus,Serum_Institute,(2,_5),1_ >= 0
Q_Rotavirus,Serum_Institute,(2,_5),2_ >= 0
Q_Rotavirus,Serum_Institute,(2,_5),3_ >= 0
Q_Rotavirus,Serum_Institute,(2,_6),1_ >= 0
Q_Rotavirus,Serum_Institute,(2,_6),2_ >= 0
Q_Rotavirus,Serum_Institute,(2,_6),3_ >= 0
Q_Rotavirus,Serum_Institute,(3,_3),1_ >= 0
Q_Rotavirus,Serum_Institute,(3,_3),2_ >= 0
Q_Rotavirus,Serum_Institute,(3,_3),3_ >= 0
Q_Rotavirus,Serum_Institute,(3,_4),1_ >= 0
Q_Rotavirus,Serum_Institute,(3,_4),2_ >= 0
Q_Rotavirus,Serum_Institute,(3,_4),3_ >= 0
Q_Rotavirus,Serum_Institute,(3,_5),1_ >= 0
Q_Rotavirus,Serum_Institute,(3,_5),2_ >= 0
Q_Rotavirus,Serum_Institute,(3,_5),3_ >= 0
Q_Rotavirus,Serum_Institute,(3,_6),1_ >= 0
Q_Rotavirus,Serum_Institute,(3,_6),2_ >= 0
Q_Rotavirus,Serum_Institute,(3,_6),3_ >= 0
Q_Rotavirus,Serum_Institute,(3,_7),1_ >= 0
Q_Rotavirus,Serum_Institute,(3,_7),2_ >= 0
Q_Rotavirus,Serum_Institute,(3,_7),3_ >= 0
Q_Rotavirus,Serum_Institute,(4,_4),1_ >= 0
Q_Rotavirus,Serum_Institute,(4,_4),2_ >= 0
Q_Rotavirus,Serum_Institute,(4,_4),3_ >= 0
Q_Rotavirus,Serum_Institute,(4,_5),1_ >= 0
Q_Rotavirus,Serum_Institute,(4,_5),2_ >= 0
Q_Rotavirus,Serum_Institute,(4,_5),3_ >= 0
Q_Rotavirus,Serum_Institute,(4,_6),1_ >= 0
Q_Rotavirus,Serum_Institute,(4,_6),2_ >= 0
Q_Rotavirus,Serum_Institute,(4,_6),3_ >= 0
Q_Rotavirus,Serum_Institute,(4,_7),1_ >= 0
Q_Rotavirus,Serum_Institute,(4,_7),2_ >= 0
Q_Rotavirus,Serum_Institute,(4,_7),3_ >= 0
Q_Rotavirus,Serum_Institute,(4,_8),1_ >= 0
Q_Rotavirus,Serum_Institute,(4,_8),2_ >= 0
Q_Rotavirus,Serum_Institute,(4,_8),3_ >= 0
Q_Rotavirus,Serum_Institute,(5,_5),1_ >= 0
Q_Rotavirus,Serum_Institute,(5,_5),2_ >= 0
Q_Rotavirus,Serum_Institute,(5,_5),3_ >= 0
Q_Rotavirus,Serum_Institute,(5,_6),1_ >= 0
Q_Rotavirus,Serum_Institute,(5,_6),2_ >= 0
Q_Rotavirus,Serum_Institute,(5,_6),3_ >= 0
Q_Rotavirus,Serum_Institute,(5,_7),1_ >= 0
Q_Rotavirus,Serum_Institute,(5,_7),2_ >= 0
Q_Rotavirus,Serum_Institute,(5,_7),3_ >= 0
Q_Rotavirus,Serum_Institute,(5,_8),1_ >= 0
Q_Rotavirus,Serum_Institute,(5,_8),2_ >= 0
Q_Rotavirus,Serum_Institute,(5,_8),3_ >= 0
Q_Rotavirus,Serum_Institute,(5,_9),1_ >= 0
Q_Rotavirus,Serum_Institute,(5,_9),2_ >= 0
Q_Rotavirus,Serum_Institute,(5,_9),3_ >= 0
Q_Rotavirus,Serum_Institute,(6,_6),1_ >= 0
Q_Rotavirus,Serum_Institute,(6,_6),2_ >= 0
Q_Rotavirus,Serum_Institute,(6,_6),3_ >= 0
Q_Rotavirus,Serum_Institute,(6,_7),1_ >= 0
Q_Rotavirus,Serum_Institute,(6,_7),2_ >= 0
Q_Rotavirus,Serum_Institute,(6,_7),3_ >= 0
Q_Rotavirus,Serum_Institute,(6,_8),1_ >= 0
Q_Rotavirus,Serum_Institute,(6,_8),2_ >= 0
Q_Rotavirus,Serum_Institute,(6,_8),3_ >= 0
Q_Rotavirus,Serum_Institute,(6,_9),1_ >= 0
Q_Rotavirus,Serum_Institute,(6,_9),2_ >= 0
Q_Rotavirus,Serum_Institute,(6,_9),3_ >= 0
Q_Rotavirus,Serum_Institute,(6,_10),1_ >= 0
Q_Rotavirus,Serum_Institute,(6,_10),2_ >= 0
Q_Rotavirus,Serum_Institute,(6,_10),3_ >= 0
Q_Rotavirus,Serum_Institute,(7,_7),1_ >= 0
Q_Rotavirus,Serum_Institute,(7,_7),2_ >= 0
Q_Rotavirus,Serum_Institute,(7,_7),3_ >= 0
Q_Rotavirus,Serum_Institute,(7,_8),1_ >= 0
Q_Rotavirus,Serum_Institute,(7,_8),2_ >= 0
Q_Rotavirus,Serum_Institute,(7,_8),3_ >= 0
Q_Rotavirus,Serum_Institute,(7,_9),1_ >= 0
Q_Rotavirus,Serum_Institute,(7,_9),2_ >= 0
Q_Rotavirus,Serum_Institute,(7,_9),3_ >= 0
Q_Rotavirus,Serum_Institute,(7,_10),1_ >= 0
Q_Rotavirus,Serum_Institute,(7,_10),2_ >= 0
Q_Rotavirus,Serum_Institute,(7,_10),3_ >= 0
Q_Rotavirus,Serum_Institute,(8,_8),1_ >= 0
Q_Rotavirus,Serum_Institute,(8,_8),2_ >= 0
Q_Rotavirus,Serum_Institute,(8,_8),3_ >= 0
Q_Rotavirus,Serum_Institute,(8,_9),1_ >= 0
Q_Rotavirus,Serum_Institute,(8,_9),2_ >= 0
Q_Rotavirus,Serum_Institute,(8,_9),3_ >= 0
Q_Rotavirus,Serum_Institute,(8,_10),1_ >= 0
Q_Rotavirus,Serum_Institute,(8,_10),2_ >= 0
Q_Rotavirus,Serum_Institute,(8,_10),3_ >= 0
Q_Rotavirus,Serum_Institute,(9,_9),1_ >= 0
Q_Rotavirus,Serum_Institute,(9,_9),2_ >= 0
Q_Rotavirus,Serum_Institute,(9,_9),3_ >= 0
Q_Rotavirus,Serum_Institute,(9,_10),1_ >= 0
Q_Rotavirus,Serum_Institute,(9,_10),2_ >= 0
Q_Rotavirus,Serum_Institute,(9,_10),3_ >= 0
Q_Rotavirus,Serum_Institute,(10,_10),1_ >= 0
Q_Rotavirus,Serum_Institute,(10,_10),2_ >= 0
Q_Rotavirus,Serum_Institute,(10,_10),3_ >= 0
Q_Rotavirus,GSK,(1,_1),1_ >= 0
Q_Rotavirus,GSK,(1,_1),2_ >= 0
Q_Rotavirus,GSK,(1,_1),3_ >= 0
Q_Rotavirus,GSK,(1,_2),1_ >= 0
Q_Rotavirus,GSK,(1,_2),2_ >= 0
Q_Rotavirus,GSK,(1,_2),3_ >= 0
Q_Rotavirus,GSK,(1,_3),1_ >= 0
Q_Rotavirus,GSK,(1,_3),2_ >= 0
Q_Rotavirus,GSK,(1,_3),3_ >= 0
Q_Rotavirus,GSK,(1,_4),1_ >= 0
Q_Rotavirus,GSK,(1,_4),2_ >= 0
Q_Rotavirus,GSK,(1,_4),3_ >= 0
Q_Rotavirus,GSK,(1,_5),1_ >= 0
Q_Rotavirus,GSK,(1,_5),2_ >= 0
Q_Rotavirus,GSK,(1,_5),3_ >= 0
Q_Rotavirus,GSK,(2,_2),1_ >= 0
Q_Rotavirus,GSK,(2,_2),2_ >= 0
Q_Rotavirus,GSK,(2,_2),3_ >= 0
Q_Rotavirus,GSK,(2,_3),1_ >= 0
Q_Rotavirus,GSK,(2,_3),2_ >= 0
Q_Rotavirus,GSK,(2,_3),3_ >= 0
Q_Rotavirus,GSK,(2,_4),1_ >= 0
Q_Rotavirus,GSK,(2,_4),2_ >= 0
Q_Rotavirus,GSK,(2,_4),3_ >= 0
Q_Rotavirus,GSK,(2,_5),1_ >= 0
Q_Rotavirus,GSK,(2,_5),2_ >= 0
Q_Rotavirus,GSK,(2,_5),3_ >= 0
Q_Rotavirus,GSK,(2,_6),1_ >= 0
Q_Rotavirus,GSK,(2,_6),2_ >= 0
Q_Rotavirus,GSK,(2,_6),3_ >= 0
Q_Rotavirus,GSK,(3,_3),1_ >= 0
Q_Rotavirus,GSK,(3,_3),2_ >= 0
Q_Rotavirus,GSK,(3,_3),3_ >= 0
Q_Rotavirus,GSK,(3,_4),1_ >= 0
Q_Rotavirus,GSK,(3,_4),2_ >= 0
Q_Rotavirus,GSK,(3,_4),3_ >= 0
Q_Rotavirus,GSK,(3,_5),1_ >= 0
Q_Rotavirus,GSK,(3,_5),2_ >= 0
Q_Rotavirus,GSK,(3,_5),3_ >= 0
Q_Rotavirus,GSK,(3,_6),1_ >= 0
Q_Rotavirus,GSK,(3,_6),2_ >= 0
Q_Rotavirus,GSK,(3,_6),3_ >= 0
Q_Rotavirus,GSK,(3,_7),1_ >= 0
Q_Rotavirus,GSK,(3,_7),2_ >= 0
Q_Rotavirus,GSK,(3,_7),3_ >= 0
Q_Rotavirus,GSK,(4,_4),1_ >= 0
Q_Rotavirus,GSK,(4,_4),2_ >= 0
Q_Rotavirus,GSK,(4,_4),3_ >= 0
Q_Rotavirus,GSK,(4,_5),1_ >= 0
Q_Rotavirus,GSK,(4,_5),2_ >= 0
Q_Rotavirus,GSK,(4,_5),3_ >= 0
Q_Rotavirus,GSK,(4,_6),1_ >= 0
Q_Rotavirus,GSK,(4,_6),2_ >= 0
Q_Rotavirus,GSK,(4,_6),3_ >= 0
Q_Rotavirus,GSK,(4,_7),1_ >= 0
Q_Rotavirus,GSK,(4,_7),2_ >= 0
Q_Rotavirus,GSK,(4,_7),3_ >= 0
Q_Rotavirus,GSK,(4,_8),1_ >= 0
Q_Rotavirus,GSK,(4,_8),2_ >= 0
Q_Rotavirus,GSK,(4,_8),3_ >= 0
Q_Rotavirus,GSK,(5,_5),1_ >= 0
Q_Rotavirus,GSK,(5,_5),2_ >= 0
Q_Rotavirus,GSK,(5,_5),3_ >= 0
Q_Rotavirus,GSK,(5,_6),1_ >= 0
Q_Rotavirus,GSK,(5,_6),2_ >= 0
Q_Rotavirus,GSK,(5,_6),3_ >= 0
Q_Rotavirus,GSK,(5,_7),1_ >= 0
Q_Rotavirus,GSK,(5,_7),2_ >= 0
Q_Rotavirus,GSK,(5,_7),3_ >= 0
Q_Rotavirus,GSK,(5,_8),1_ >= 0
Q_Rotavirus,GSK,(5,_8),2_ >= 0
Q_Rotavirus,GSK,(5,_8),3_ >= 0
Q_Rotavirus,GSK,(5,_9),1_ >= 0
Q_Rotavirus,GSK,(5,_9),2_ >= 0
Q_Rotavirus,GSK,(5,_9),3_ >= 0
Q_Rotavirus,GSK,(6,_6),1_ >= 0
Q_Rotavirus,GSK,(6,_6),2_ >= 0
Q_Rotavirus,GSK,(6,_6),3_ >= 0
Q_Rotavirus,GSK,(6,_7),1_ >= 0
Q_Rotavirus,GSK,(6,_7),2_ >= 0
Q_Rotavirus,GSK,(6,_7),3_ >= 0
Q_Rotavirus,GSK,(6,_8),1_ >= 0
Q_Rotavirus,GSK,(6,_8),2_ >= 0
Q_Rotavirus,GSK,(6,_8),3_ >= 0
Q_Rotavirus,GSK,(6,_9),1_ >= 0
Q_Rotavirus,GSK,(6,_9),2_ >= 0
Q_Rotavirus,GSK,(6,_9),3_ >= 0
Q_Rotavirus,GSK,(6,_10),1_ >= 0
Q_Rotavirus,GSK,(6,_10),2_ >= 0
Q_Rotavirus,GSK,(6,_10),3_ >= 0
Q_Rotavirus,GSK,(7,_7),1_ >= 0
Q_Rotavirus,GSK,(7,_7),2_ >= 0
Q_Rotavirus,GSK,(7,_7),3_ >= 0
Q_Rotavirus,GSK,(7,_8),1_ >= 0
Q_Rotavirus,GSK,(7,_8),2_ >= 0
Q_Rotavirus,GSK,(7,_8),3_ >= 0
Q_Rotavirus,GSK,(7,_9),1_ >= 0
Q_Rotavirus,GSK,(7,_9),2_ >= 0
Q_Rotavirus,GSK,(7,_9),3_ >= 0
Q_Rotavirus,GSK,(7,_10),1_ >= 0
Q_Rotavirus,GSK,(7,_10),2_ >= 0
Q_Rotavirus,GSK,(7,_10),3_ >= 0
Q_Rotavirus,GSK,(8,_8),1_ >= 0
Q_Rotavirus,GSK,(8,_8),2_ >= 0
Q_Rotavirus,GSK,(8,_8),3_ >= 0
Q_Rotavirus,GSK,(8,_9),1_ >= 0
Q_Rotavirus,GSK,(8,_9),2_ >= 0
Q_Rotavirus,GSK,(8,_9),3_ >= 0
Q_Rotavirus,GSK,(8,_10),1_ >= 0
Q_Rotavirus,GSK,(8,_10),2_ >= 0
Q_Rotavirus,GSK,(8,_10),3_ >= 0
Q_Rotavirus,GSK,(9,_9),1_ >= 0
Q_Rotavirus,GSK,(9,_9),2_ >= 0
Q_Rotavirus,GSK,(9,_9),3_ >= 0
Q_Rotavirus,GSK,(9,_10),1_ >= 0
Q_Rotavirus,GSK,(9,_10),2_ >= 0
Q_Rotavirus,GSK,(9,_10),3_ >= 0
Q_Rotavirus,GSK,(10,_10),1_ >= 0
Q_Rotavirus,GSK,(10,_10),2_ >= 0
Q_Rotavirus,GSK,(10,_10),3_ >= 0
Q_Rotavirus,Bharat_Biotech,(1,_1),1_ >= 0
Q_Rotavirus,Bharat_Biotech,(1,_1),2_ >= 0
Q_Rotavirus,Bharat_Biotech,(1,_1),3_ >= 0
Q_Rotavirus,Bharat_Biotech,(1,_2),1_ >= 0
Q_Rotavirus,Bharat_Biotech,(1,_2),2_ >= 0
Q_Rotavirus,Bharat_Biotech,(1,_2),3_ >= 0
Q_Rotavirus,Bharat_Biotech,(1,_3),1_ >= 0
Q_Rotavirus,Bharat_Biotech,(1,_3),2_ >= 0
Q_Rotavirus,Bharat_Biotech,(1,_3),3_ >= 0
Q_Rotavirus,Bharat_Biotech,(1,_4),1_ >= 0
Q_Rotavirus,Bharat_Biotech,(1,_4),2_ >= 0
Q_Rotavirus,Bharat_Biotech,(1,_4),3_ >= 0
Q_Rotavirus,Bharat_Biotech,(1,_5),1_ >= 0
Q_Rotavirus,Bharat_Biotech,(1,_5),2_ >= 0
Q_Rotavirus,Bharat_Biotech,(1,_5),3_ >= 0
Q_Rotavirus,Bharat_Biotech,(2,_2),1_ >= 0
Q_Rotavirus,Bharat_Biotech,(2,_2),2_ >= 0
Q_Rotavirus,Bharat_Biotech,(2,_2),3_ >= 0
Q_Rotavirus,Bharat_Biotech,(2,_3),1_ >= 0
Q_Rotavirus,Bharat_Biotech,(2,_3),2_ >= 0
Q_Rotavirus,Bharat_Biotech,(2,_3),3_ >= 0
Q_Rotavirus,Bharat_Biotech,(2,_4),1_ >= 0
Q_Rotavirus,Bharat_Biotech,(2,_4),2_ >= 0
Q_Rotavirus,Bharat_Biotech,(2,_4),3_ >= 0
Q_Rotavirus,Bharat_Biotech,(2,_5),1_ >= 0
Q_Rotavirus,Bharat_Biotech,(2,_5),2_ >= 0
Q_Rotavirus,Bharat_Biotech,(2,_5),3_ >= 0
Q_Rotavirus,Bharat_Biotech,(2,_6),1_ >= 0
Q_Rotavirus,Bharat_Biotech,(2,_6),2_ >= 0
Q_Rotavirus,Bharat_Biotech,(2,_6),3_ >= 0
Q_Rotavirus,Bharat_Biotech,(3,_3),1_ >= 0
Q_Rotavirus,Bharat_Biotech,(3,_3),2_ >= 0
Q_Rotavirus,Bharat_Biotech,(3,_3),3_ >= 0
Q_Rotavirus,Bharat_Biotech,(3,_4),1_ >= 0
Q_Rotavirus,Bharat_Biotech,(3,_4),2_ >= 0
Q_Rotavirus,Bharat_Biotech,(3,_4),3_ >= 0
Q_Rotavirus,Bharat_Biotech,(3,_5),1_ >= 0
Q_Rotavirus,Bharat_Biotech,(3,_5),2_ >= 0
Q_Rotavirus,Bharat_Biotech,(3,_5),3_ >= 0
Q_Rotavirus,Bharat_Biotech,(3,_6),1_ >= 0
Q_Rotavirus,Bharat_Biotech,(3,_6),2_ >= 0
Q_Rotavirus,Bharat_Biotech,(3,_6),3_ >= 0
Q_Rotavirus,Bharat_Biotech,(3,_7),1_ >= 0
Q_Rotavirus,Bharat_Biotech,(3,_7),2_ >= 0
Q_Rotavirus,Bharat_Biotech,(3,_7),3_ >= 0
Q_Rotavirus,Bharat_Biotech,(4,_4),1_ >= 0
Q_Rotavirus,Bharat_Biotech,(4,_4),2_ >= 0
Q_Rotavirus,Bharat_Biotech,(4,_4),3_ >= 0
Q_Rotavirus,Bharat_Biotech,(4,_5),1_ >= 0
Q_Rotavirus,Bharat_Biotech,(4,_5),2_ >= 0
Q_Rotavirus,Bharat_Biotech,(4,_5),3_ >= 0
Q_Rotavirus,Bharat_Biotech,(4,_6),1_ >= 0
Q_Rotavirus,Bharat_Biotech,(4,_6),2_ >= 0
Q_Rotavirus,Bharat_Biotech,(4,_6),3_ >= 0
Q_Rotavirus,Bharat_Biotech,(4,_7),1_ >= 0
Q_Rotavirus,Bharat_Biotech,(4,_7),2_ >= 0
Q_Rotavirus,Bharat_Biotech,(4,_7),3_ >= 0
Q_Rotavirus,Bharat_Biotech,(4,_8),1_ >= 0
Q_Rotavirus,Bharat_Biotech,(4,_8),2_ >= 0
Q_Rotavirus,Bharat_Biotech,(4,_8),3_ >= 0
Q_Rotavirus,Bharat_Biotech,(5,_5),1_ >= 0
Q_Rotavirus,Bharat_Biotech,(5,_5),2_ >= 0
Q_Rotavirus,Bharat_Biotech,(5,_5),3_ >= 0
Q_Rotavirus,Bharat_Biotech,(5,_6),1_ >= 0
Q_Rotavirus,Bharat_Biotech,(5,_6),2_ >= 0
Q_Rotavirus,Bharat_Biotech,(5,_6),3_ >= 0
Q_Rotavirus,Bharat_Biotech,(5,_7),1_ >= 0
Q_Rotavirus,Bharat_Biotech,(5,_7),2_ >= 0
Q_Rotavirus,Bharat_Biotech,(5,_7),3_ >= 0
Q_Rotavirus,Bharat_Biotech,(5,_8),1_ >= 0
Q_Rotavirus,Bharat_Biotech,(5,_8),2_ >= 0
Q_Rotavirus,Bharat_Biotech,(5,_8),3_ >= 0
Q_Rotavirus,Bharat_Biotech,(5,_9),1_ >= 0
Q_Rotavirus,Bharat_Biotech,(5,_9),2_ >= 0
Q_Rotavirus,Bharat_Biotech,(5,_9),3_ >= 0
Q_Rotavirus,Bharat_Biotech,(6,_6),1_ >= 0
Q_Rotavirus,Bharat_Biotech,(6,_6),2_ >= 0
Q_Rotavirus,Bharat_Biotech,(6,_6),3_ >= 0
Q_Rotavirus,Bharat_Biotech,(6,_7),1_ >= 0
Q_Rotavirus,Bharat_Biotech,(6,_7),2_ >= 0
Q_Rotavirus,Bharat_Biotech,(6,_7),3_ >= 0
Q_Rotavirus,Bharat_Biotech,(6,_8),1_ >= 0
Q_Rotavirus,Bharat_Biotech,(6,_8),2_ >= 0
Q_Rotavirus,Bharat_Biotech,(6,_8),3_ >= 0
Q_Rotavirus,Bharat_Biotech,(6,_9),1_ >= 0
Q_Rotavirus,Bharat_Biotech,(6,_9),2_ >= 0
Q_Rotavirus,Bharat_Biotech,(6,_9),3_ >= 0
Q_Rotavirus,Bharat_Biotech,(6,_10),1_ >= 0
Q_Rotavirus,Bharat_Biotech,(6,_10),2_ >= 0
Q_Rotavirus,Bharat_Biotech,(6,_10),3_ >= 0
Q_Rotavirus,Bharat_Biotech,(7,_7),1_ >= 0
Q_Rotavirus,Bharat_Biotech,(7,_7),2_ >= 0
Q_Rotavirus,Bharat_Biotech,(7,_7),3_ >= 0
Q_Rotavirus,Bharat_Biotech,(7,_8),1_ >= 0
Q_Rotavirus,Bharat_Biotech,(7,_8),2_ >= 0
Q_Rotavirus,Bharat_Biotech,(7,_8),3_ >= 0
Q_Rotavirus,Bharat_Biotech,(7,_9),1_ >= 0
Q_Rotavirus,Bharat_Biotech,(7,_9),2_ >= 0
Q_Rotavirus,Bharat_Biotech,(7,_9),3_ >= 0
Q_Rotavirus,Bharat_Biotech,(7,_10),1_ >= 0
Q_Rotavirus,Bharat_Biotech,(7,_10),2_ >= 0
Q_Rotavirus,Bharat_Biotech,(7,_10),3_ >= 0
Q_Rotavirus,Bharat_Biotech,(8,_8),1_ >= 0
Q_Rotavirus,Bharat_Biotech,(8,_8),2_ >= 0
Q_Rotavirus,Bharat_Biotech,(8,_8),3_ >= 0
Q_Rotavirus,Bharat_Biotech,(8,_9),1_ >= 0
Q_Rotavirus,Bharat_Biotech,(8,_9),2_ >= 0
Q_Rotavirus,Bharat_Biotech,(8,_9),3_ >= 0
Q_Rotavirus,Bharat_Biotech,(8,_10),1_ >= 0
Q_Rotavirus,Bharat_Biotech,(8,_10),2_ >= 0
Q_Rotavirus,Bharat_Biotech,(8,_10),3_ >= 0
Q_Rotavirus,Bharat_Biotech,(9,_9),1_ >= 0
Q_Rotavirus,Bharat_Biotech,(9,_9),2_ >= 0
Q_Rotavirus,Bharat_Biotech,(9,_9),3_ >= 0
Q_Rotavirus,Bharat_Biotech,(9,_10),1_ >= 0
Q_Rotavirus,Bharat_Biotech,(9,_10),2_ >= 0
Q_Rotavirus,Bharat_Biotech,(9,_10),3_ >= 0
Q_Rotavirus,Bharat_Biotech,(10,_10),1_ >= 0
Q_Rotavirus,Bharat_Biotech,(10,_10),2_ >= 0
Q_Rotavirus,Bharat_Biotech,(10,_10),3_ >= 0
Q_PCV,Serum_Institute,(1,_1),1_ >= 0
Q_PCV,Serum_Institute,(1,_1),2_ >= 0
Q_PCV,Serum_Institute,(1,_1),3_ >= 0
Q_PCV,Serum_Institute,(1,_2),1_ >= 0
Q_PCV,Serum_Institute,(1,_2),2_ >= 0
Q_PCV,Serum_Institute,(1,_2),3_ >= 0
Q_PCV,Serum_Institute,(1,_3),1_ >= 0
Q_PCV,Serum_Institute,(1,_3),2_ >= 0
Q_PCV,Serum_Institute,(1,_3),3_ >= 0
Q_PCV,Serum_Institute,(1,_4),1_ >= 0
Q_PCV,Serum_Institute,(1,_4),2_ >= 0
Q_PCV,Serum_Institute,(1,_4),3_ >= 0
Q_PCV,Serum_Institute,(1,_5),1_ >= 0
Q_PCV,Serum_Institute,(1,_5),2_ >= 0
Q_PCV,Serum_Institute,(1,_5),3_ >= 0
Q_PCV,Serum_Institute,(2,_2),1_ >= 0
Q_PCV,Serum_Institute,(2,_2),2_ >= 0
Q_PCV,Serum_Institute,(2,_2),3_ >= 0
Q_PCV,Serum_Institute,(2,_3),1_ >= 0
Q_PCV,Serum_Institute,(2,_3),2_ >= 0
Q_PCV,Serum_Institute,(2,_3),3_ >= 0
Q_PCV,Serum_Institute,(2,_4),1_ >= 0
Q_PCV,Serum_Institute,(2,_4),2_ >= 0
Q_PCV,Serum_Institute,(2,_4),3_ >= 0
Q_PCV,Serum_Institute,(2,_5),1_ >= 0
Q_PCV,Serum_Institute,(2,_5),2_ >= 0
Q_PCV,Serum_Institute,(2,_5),3_ >= 0
Q_PCV,Serum_Institute,(2,_6),1_ >= 0
Q_PCV,Serum_Institute,(2,_6),2_ >= 0
Q_PCV,Serum_Institute,(2,_6),3_ >= 0
Q_PCV,Serum_Institute,(3,_3),1_ >= 0
Q_PCV,Serum_Institute,(3,_3),2_ >= 0
Q_PCV,Serum_Institute,(3,_3),3_ >= 0
Q_PCV,Serum_Institute,(3,_4),1_ >= 0
Q_PCV,Serum_Institute,(3,_4),2_ >= 0
Q_PCV,Serum_Institute,(3,_4),3_ >= 0
Q_PCV,Serum_Institute,(3,_5),1_ >= 0
Q_PCV,Serum_Institute,(3,_5),2_ >= 0
Q_PCV,Serum_Institute,(3,_5),3_ >= 0
Q_PCV,Serum_Institute,(3,_6),1_ >= 0
Q_PCV,Serum_Institute,(3,_6),2_ >= 0
Q_PCV,Serum_Institute,(3,_6),3_ >= 0
Q_PCV,Serum_Institute,(3,_7),1_ >= 0
Q_PCV,Serum_Institute,(3,_7),2_ >= 0
Q_PCV,Serum_Institute,(3,_7),3_ >= 0
Q_PCV,Serum_Institute,(4,_4),1_ >= 0
Q_PCV,Serum_Institute,(4,_4),2_ >= 0
Q_PCV,Serum_Institute,(4,_4),3_ >= 0
Q_PCV,Serum_Institute,(4,_5),1_ >= 0
Q_PCV,Serum_Institute,(4,_5),2_ >= 0
Q_PCV,Serum_Institute,(4,_5),3_ >= 0
Q_PCV,Serum_Institute,(4,_6),1_ >= 0
Q_PCV,Serum_Institute,(4,_6),2_ >= 0
Q_PCV,Serum_Institute,(4,_6),3_ >= 0
Q_PCV,Serum_Institute,(4,_7),1_ >= 0
Q_PCV,Serum_Institute,(4,_7),2_ >= 0
Q_PCV,Serum_Institute,(4,_7),3_ >= 0
Q_PCV,Serum_Institute,(4,_8),1_ >= 0
Q_PCV,Serum_Institute,(4,_8),2_ >= 0
Q_PCV,Serum_Institute,(4,_8),3_ >= 0
Q_PCV,Serum_Institute,(5,_5),1_ >= 0
Q_PCV,Serum_Institute,(5,_5),2_ >= 0
Q_PCV,Serum_Institute,(5,_5),3_ >= 0
Q_PCV,Serum_Institute,(5,_6),1_ >= 0
Q_PCV,Serum_Institute,(5,_6),2_ >= 0
Q_PCV,Serum_Institute,(5,_6),3_ >= 0
Q_PCV,Serum_Institute,(5,_7),1_ >= 0
Q_PCV,Serum_Institute,(5,_7),2_ >= 0
Q_PCV,Serum_Institute,(5,_7),3_ >= 0
Q_PCV,Serum_Institute,(5,_8),1_ >= 0
Q_PCV,Serum_Institute,(5,_8),2_ >= 0
Q_PCV,Serum_Institute,(5,_8),3_ >= 0
Q_PCV,Serum_Institute,(5,_9),1_ >= 0
Q_PCV,Serum_Institute,(5,_9),2_ >= 0
Q_PCV,Serum_Institute,(5,_9),3_ >= 0
Q_PCV,Serum_Institute,(6,_6),1_ >= 0
Q_PCV,Serum_Institute,(6,_6),2_ >= 0
Q_PCV,Serum_Institute,(6,_6),3_ >= 0
Q_PCV,Serum_Institute,(6,_7),1_ >= 0
Q_PCV,Serum_Institute,(6,_7),2_ >= 0
Q_PCV,Serum_Institute,(6,_7),3_ >= 0
Q_PCV,Serum_Institute,(6,_8),1_ >= 0
Q_PCV,Serum_Institute,(6,_8),2_ >= 0
Q_PCV,Serum_Institute,(6,_8),3_ >= 0
Q_PCV,Serum_Institute,(6,_9),1_ >= 0
Q_PCV,Serum_Institute,(6,_9),2_ >= 0
Q_PCV,Serum_Institute,(6,_9),3_ >= 0
Q_PCV,Serum_Institute,(6,_10),1_ >= 0
Q_PCV,Serum_Institute,(6,_10),2_ >= 0
Q_PCV,Serum_Institute,(6,_10),3_ >= 0
Q_PCV,Serum_Institute,(7,_7),1_ >= 0
Q_PCV,Serum_Institute,(7,_7),2_ >= 0
Q_PCV,Serum_Institute,(7,_7),3_ >= 0
Q_PCV,Serum_Institute,(7,_8),1_ >= 0
Q_PCV,Serum_Institute,(7,_8),2_ >= 0
Q_PCV,Serum_Institute,(7,_8),3_ >= 0
Q_PCV,Serum_Institute,(7,_9),1_ >= 0
Q_PCV,Serum_Institute,(7,_9),2_ >= 0
Q_PCV,Serum_Institute,(7,_9),3_ >= 0
Q_PCV,Serum_Institute,(7,_10),1_ >= 0
Q_PCV,Serum_Institute,(7,_10),2_ >= 0
Q_PCV,Serum_Institute,(7,_10),3_ >= 0
Q_PCV,Serum_Institute,(8,_8),1_ >= 0
Q_PCV,Serum_Institute,(8,_8),2_ >= 0
Q_PCV,Serum_Institute,(8,_8),3_ >= 0
Q_PCV,Serum_Institute,(8,_9),1_ >= 0
Q_PCV,Serum_Institute,(8,_9),2_ >= 0
Q_PCV,Serum_Institute,(8,_9),3_ >= 0
Q_PCV,Serum_Institute,(8,_10),1_ >= 0
Q_PCV,Serum_Institute,(8,_10),2_ >= 0
Q_PCV,Serum_Institute,(8,_10),3_ >= 0
Q_PCV,Serum_Institute,(9,_9),1_ >= 0
Q_PCV,Serum_Institute,(9,_9),2_ >= 0
Q_PCV,Serum_Institute,(9,_9),3_ >= 0
Q_PCV,Serum_Institute,(9,_10),1_ >= 0
Q_PCV,Serum_Institute,(9,_10),2_ >= 0
Q_PCV,Serum_Institute,(9,_10),3_ >= 0
Q_PCV,Serum_Institute,(10,_10),1_ >= 0
Q_PCV,Serum_Institute,(10,_10),2_ >= 0
Q_PCV,Serum_Institute,(10,_10),3_ >= 0
Q_PCV,GSK,(1,_1),1_ >= 0
Q_PCV,GSK,(1,_1),2_ >= 0
Q_PCV,GSK,(1,_1),3_ >= 0
Q_PCV,GSK,(1,_2),1_ >= 0
Q_PCV,GSK,(1,_2),2_ >= 0
Q_PCV,GSK,(1,_2),3_ >= 0
Q_PCV,GSK,(1,_3),1_ >= 0
Q_PCV,GSK,(1,_3),2_ >= 0
Q_PCV,GSK,(1,_3),3_ >= 0
Q_PCV,GSK,(1,_4),1_ >= 0
Q_PCV,GSK,(1,_4),2_ >= 0
Q_PCV,GSK,(1,_4),3_ >= 0
Q_PCV,GSK,(1,_5),1_ >= 0
Q_PCV,GSK,(1,_5),2_ >= 0
Q_PCV,GSK,(1,_5),3_ >= 0
Q_PCV,GSK,(2,_2),1_ >= 0
Q_PCV,GSK,(2,_2),2_ >= 0
Q_PCV,GSK,(2,_2),3_ >= 0
Q_PCV,GSK,(2,_3),1_ >= 0
Q_PCV,GSK,(2,_3),2_ >= 0
Q_PCV,GSK,(2,_3),3_ >= 0
Q_PCV,GSK,(2,_4),1_ >= 0
Q_PCV,GSK,(2,_4),2_ >= 0
Q_PCV,GSK,(2,_4),3_ >= 0
Q_PCV,GSK,(2,_5),1_ >= 0
Q_PCV,GSK,(2,_5),2_ >= 0
Q_PCV,GSK,(2,_5),3_ >= 0
Q_PCV,GSK,(2,_6),1_ >= 0
Q_PCV,GSK,(2,_6),2_ >= 0
Q_PCV,GSK,(2,_6),3_ >= 0
Q_PCV,GSK,(3,_3),1_ >= 0
Q_PCV,GSK,(3,_3),2_ >= 0
Q_PCV,GSK,(3,_3),3_ >= 0
Q_PCV,GSK,(3,_4),1_ >= 0
Q_PCV,GSK,(3,_4),2_ >= 0
Q_PCV,GSK,(3,_4),3_ >= 0
Q_PCV,GSK,(3,_5),1_ >= 0
Q_PCV,GSK,(3,_5),2_ >= 0
Q_PCV,GSK,(3,_5),3_ >= 0
Q_PCV,GSK,(3,_6),1_ >= 0
Q_PCV,GSK,(3,_6),2_ >= 0
Q_PCV,GSK,(3,_6),3_ >= 0
Q_PCV,GSK,(3,_7),1_ >= 0
Q_PCV,GSK,(3,_7),2_ >= 0
Q_PCV,GSK,(3,_7),3_ >= 0
Q_PCV,GSK,(4,_4),1_ >= 0
Q_PCV,GSK,(4,_4),2_ >= 0
Q_PCV,GSK,(4,_4),3_ >= 0
Q_PCV,GSK,(4,_5),1_ >= 0
Q_PCV,GSK,(4,_5),2_ >= 0
Q_PCV,GSK,(4,_5),3_ >= 0
Q_PCV,GSK,(4,_6),1_ >= 0
Q_PCV,GSK,(4,_6),2_ >= 0
Q_PCV,GSK,(4,_6),3_ >= 0
Q_PCV,GSK,(4,_7),1_ >= 0
Q_PCV,GSK,(4,_7),2_ >= 0
Q_PCV,GSK,(4,_7),3_ >= 0
Q_PCV,GSK,(4,_8),1_ >= 0
Q_PCV,GSK,(4,_8),2_ >= 0
Q_PCV,GSK,(4,_8),3_ >= 0
Q_PCV,GSK,(5,_5),1_ >= 0
Q_PCV,GSK,(5,_5),2_ >= 0
Q_PCV,GSK,(5,_5),3_ >= 0
Q_PCV,GSK,(5,_6),1_ >= 0
Q_PCV,GSK,(5,_6),2_ >= 0
Q_PCV,GSK,(5,_6),3_ >= 0
Q_PCV,GSK,(5,_7),1_ >= 0
Q_PCV,GSK,(5,_7),2_ >= 0
Q_PCV,GSK,(5,_7),3_ >= 0
Q_PCV,GSK,(5,_8),1_ >= 0
Q_PCV,GSK,(5,_8),2_ >= 0
Q_PCV,GSK,(5,_8),3_ >= 0
Q_PCV,GSK,(5,_9),1_ >= 0
Q_PCV,GSK,(5,_9),2_ >= 0
Q_PCV,GSK,(5,_9),3_ >= 0
Q_PCV,GSK,(6,_6),1_ >= 0
Q_PCV,GSK,(6,_6),2_ >= 0
Q_PCV,GSK,(6,_6),3_ >= 0
Q_PCV,GSK,(6,_7),1_ >= 0
Q_PCV,GSK,(6,_7),2_ >= 0
Q_PCV,GSK,(6,_7),3_ >= 0
Q_PCV,GSK,(6,_8),1_ >= 0
Q_PCV,GSK,(6,_8),2_ >= 0
Q_PCV,GSK,(6,_8),3_ >= 0
Q_PCV,GSK,(6,_9),1_ >= 0
Q_PCV,GSK,(6,_9),2_ >= 0
Q_PCV,GSK,(6,_9),3_ >= 0
Q_PCV,GSK,(6,_10),1_ >= 0
Q_PCV,GSK,(6,_10),2_ >= 0
Q_PCV,GSK,(6,_10),3_ >= 0
Q_PCV,GSK,(7,_7),1_ >= 0
Q_PCV,GSK,(7,_7),2_ >= 0
Q_PCV,GSK,(7,_7),3_ >= 0
Q_PCV,GSK,(7,_8),1_ >= 0
Q_PCV,GSK,(7,_8),2_ >= 0
Q_PCV,GSK,(7,_8),3_ >= 0
Q_PCV,GSK,(7,_9),1_ >= 0
Q_PCV,GSK,(7,_9),2_ >= 0
Q_PCV,GSK,(7,_9),3_ >= 0
Q_PCV,GSK,(7,_10),1_ >= 0
Q_PCV,GSK,(7,_10),2_ >= 0
Q_PCV,GSK,(7,_10),3_ >= 0
Q_PCV,GSK,(8,_8),1_ >= 0
Q_PCV,GSK,(8,_8),2_ >= 0
Q_PCV,GSK,(8,_8),3_ >= 0
Q_PCV,GSK,(8,_9),1_ >= 0
Q_PCV,GSK,(8,_9),2_ >= 0
Q_PCV,GSK,(8,_9),3_ >= 0
Q_PCV,GSK,(8,_10),1_ >= 0
Q_PCV,GSK,(8,_10),2_ >= 0
Q_PCV,GSK,(8,_10),3_ >= 0
Q_PCV,GSK,(9,_9),1_ >= 0
Q_PCV,GSK,(9,_9),2_ >= 0
Q_PCV,GSK,(9,_9),3_ >= 0
Q_PCV,GSK,(9,_10),1_ >= 0
Q_PCV,GSK,(9,_10),2_ >= 0
Q_PCV,GSK,(9,_10),3_ >= 0
Q_PCV,GSK,(10,_10),1_ >= 0
Q_PCV,GSK,(10,_10),2_ >= 0
Q_PCV,GSK,(10,_10),3_ >= 0
Q_PCV,Pfizer,(1,_1),1_ >= 0
Q_PCV,Pfizer,(1,_1),2_ >= 0
Q_PCV,Pfizer,(1,_1),3_ >= 0
Q_PCV,Pfizer,(1,_2),1_ >= 0
Q_PCV,Pfizer,(1,_2),2_ >= 0
Q_PCV,Pfizer,(1,_2),3_ >= 0
Q_PCV,Pfizer,(1,_3),1_ >= 0
Q_PCV,Pfizer,(1,_3),2_ >= 0
Q_PCV,Pfizer,(1,_3),3_ >= 0
Q_PCV,Pfizer,(1,_4),1_ >= 0
Q_PCV,Pfizer,(1,_4),2_ >= 0
Q_PCV,Pfizer,(1,_4),3_ >= 0
Q_PCV,Pfizer,(1,_5),1_ >= 0
Q_PCV,Pfizer,(1,_5),2_ >= 0
Q_PCV,Pfizer,(1,_5),3_ >= 0
Q_PCV,Pfizer,(2,_2),1_ >= 0
Q_PCV,Pfizer,(2,_2),2_ >= 0
Q_PCV,Pfizer,(2,_2),3_ >= 0
Q_PCV,Pfizer,(2,_3),1_ >= 0
Q_PCV,Pfizer,(2,_3),2_ >= 0
Q_PCV,Pfizer,(2,_3),3_ >= 0
Q_PCV,Pfizer,(2,_4),1_ >= 0
Q_PCV,Pfizer,(2,_4),2_ >= 0
Q_PCV,Pfizer,(2,_4),3_ >= 0
Q_PCV,Pfizer,(2,_5),1_ >= 0
Q_PCV,Pfizer,(2,_5),2_ >= 0
Q_PCV,Pfizer,(2,_5),3_ >= 0
Q_PCV,Pfizer,(2,_6),1_ >= 0
Q_PCV,Pfizer,(2,_6),2_ >= 0
Q_PCV,Pfizer,(2,_6),3_ >= 0
Q_PCV,Pfizer,(3,_3),1_ >= 0
Q_PCV,Pfizer,(3,_3),2_ >= 0
Q_PCV,Pfizer,(3,_3),3_ >= 0
Q_PCV,Pfizer,(3,_4),1_ >= 0
Q_PCV,Pfizer,(3,_4),2_ >= 0
Q_PCV,Pfizer,(3,_4),3_ >= 0
Q_PCV,Pfizer,(3,_5),1_ >= 0
Q_PCV,Pfizer,(3,_5),2_ >= 0
Q_PCV,Pfizer,(3,_5),3_ >= 0
Q_PCV,Pfizer,(3,_6),1_ >= 0
Q_PCV,Pfizer,(3,_6),2_ >= 0
Q_PCV,Pfizer,(3,_6),3_ >= 0
Q_PCV,Pfizer,(3,_7),1_ >= 0
Q_PCV,Pfizer,(3,_7),2_ >= 0
Q_PCV,Pfizer,(3,_7),3_ >= 0
Q_PCV,Pfizer,(4,_4),1_ >= 0
Q_PCV,Pfizer,(4,_4),2_ >= 0
Q_PCV,Pfizer,(4,_4),3_ >= 0
Q_PCV,Pfizer,(4,_5),1_ >= 0
Q_PCV,Pfizer,(4,_5),2_ >= 0
Q_PCV,Pfizer,(4,_5),3_ >= 0
Q_PCV,Pfizer,(4,_6),1_ >= 0
Q_PCV,Pfizer,(4,_6),2_ >= 0
Q_PCV,Pfizer,(4,_6),3_ >= 0
Q_PCV,Pfizer,(4,_7),1_ >= 0
Q_PCV,Pfizer,(4,_7),2_ >= 0
Q_PCV,Pfizer,(4,_7),3_ >= 0
Q_PCV,Pfizer,(4,_8),1_ >= 0
Q_PCV,Pfizer,(4,_8),2_ >= 0
Q_PCV,Pfizer,(4,_8),3_ >= 0
Q_PCV,Pfizer,(5,_5),1_ >= 0
Q_PCV,Pfizer,(5,_5),2_ >= 0
Q_PCV,Pfizer,(5,_5),3_ >= 0
Q_PCV,Pfizer,(5,_6),1_ >= 0
Q_PCV,Pfizer,(5,_6),2_ >= 0
Q_PCV,Pfizer,(5,_6),3_ >= 0
Q_PCV,Pfizer,(5,_7),1_ >= 0
Q_PCV,Pfizer,(5,_7),2_ >= 0
Q_PCV,Pfizer,(5,_7),3_ >= 0
Q_PCV,Pfizer,(5,_8),1_ >= 0
Q_PCV,Pfizer,(5,_8),2_ >= 0
Q_PCV,Pfizer,(5,_8),3_ >= 0
Q_PCV,Pfizer,(5,_9),1_ >= 0
Q_PCV,Pfizer,(5,_9),2_ >= 0
Q_PCV,Pfizer,(5,_9),3_ >= 0
Q_PCV,Pfizer,(6,_6),1_ >= 0
Q_PCV,Pfizer,(6,_6),2_ >= 0
Q_PCV,Pfizer,(6,_6),3_ >= 0
Q_PCV,Pfizer,(6,_7),1_ >= 0
Q_PCV,Pfizer,(6,_7),2_ >= 0
Q_PCV,Pfizer,(6,_7),3_ >= 0
Q_PCV,Pfizer,(6,_8),1_ >= 0
Q_PCV,Pfizer,(6,_8),2_ >= 0
Q_PCV,Pfizer,(6,_8),3_ >= 0
Q_PCV,Pfizer,(6,_9),1_ >= 0
Q_PCV,Pfizer,(6,_9),2_ >= 0
Q_PCV,Pfizer,(6,_9),3_ >= 0
Q_PCV,Pfizer,(6,_10),1_ >= 0
Q_PCV,Pfizer,(6,_10),2_ >= 0
Q_PCV,Pfizer,(6,_10),3_ >= 0
Q_PCV,Pfizer,(7,_7),1_ >= 0
Q_PCV,Pfizer,(7,_7),2_ >= 0
Q_PCV,Pfizer,(7,_7),3_ >= 0
Q_PCV,Pfizer,(7,_8),1_ >= 0
Q_PCV,Pfizer,(7,_8),2_ >= 0
Q_PCV,Pfizer,(7,_8),3_ >= 0
Q_PCV,Pfizer,(7,_9),1_ >= 0
Q_PCV,Pfizer,(7,_9),2_ >= 0
Q_PCV,Pfizer,(7,_9),3_ >= 0
Q_PCV,Pfizer,(7,_10),1_ >= 0
Q_PCV,Pfizer,(7,_10),2_ >= 0
Q_PCV,Pfizer,(7,_10),3_ >= 0
Q_PCV,Pfizer,(8,_8),1_ >= 0
Q_PCV,Pfizer,(8,_8),2_ >= 0
Q_PCV,Pfizer,(8,_8),3_ >= 0
Q_PCV,Pfizer,(8,_9),1_ >= 0
Q_PCV,Pfizer,(8,_9),2_ >= 0
Q_PCV,Pfizer,(8,_9),3_ >= 0
Q_PCV,Pfizer,(8,_10),1_ >= 0
Q_PCV,Pfizer,(8,_10),2_ >= 0
Q_PCV,Pfizer,(8,_10),3_ >= 0
Q_PCV,Pfizer,(9,_9),1_ >= 0
Q_PCV,Pfizer,(9,_9),2_ >= 0
Q_PCV,Pfizer,(9,_9),3_ >= 0
Q_PCV,Pfizer,(9,_10),1_ >= 0
Q_PCV,Pfizer,(9,_10),2_ >= 0
Q_PCV,Pfizer,(9,_10),3_ >= 0
Q_PCV,Pfizer,(10,_10),1_ >= 0
Q_PCV,Pfizer,(10,_10),2_ >= 0
Q_PCV,Pfizer,(10,_10),3_ >= 0
Y_tilde_AJ_Vaccines,1_ >= 0
Y_tilde_BB_NCIPD,1_ >= 0
Y_tilde_China_National,1_ >= 0
Y_tilde_Bharat_Biotech,1_ >= 0
Y_tilde_Bilthoven,1_ >= 0
Y_tilde_Biological_E,1_ >= 0
Y_tilde_GSK,1_ >= 0
Y_tilde_Haffkine_Bio,1_ >= 0
Y_tilde_LG_Chem,1_ >= 0
Y_tilde_Merck_Sharp,1_ >= 0
Y_tilde_Panacea_Biotec,1_ >= 0
Y_tilde_PT_Bio,1_ >= 0
Y_tilde_Sanofi,1_ >= 0
Y_tilde_Serum_Institute,1_ >= 0
Y_tilde_Pfizer,1_ >= 0
Y_tilde_AJ_Vaccines,2_ >= 0
Y_tilde_BB_NCIPD,2_ >= 0
Y_tilde_China_National,2_ >= 0
Y_tilde_Bharat_Biotech,2_ >= 0
Y_tilde_Bilthoven,2_ >= 0
Y_tilde_Biological_E,2_ >= 0
Y_tilde_GSK,2_ >= 0
Y_tilde_Haffkine_Bio,2_ >= 0
Y_tilde_LG_Chem,2_ >= 0
Y_tilde_Merck_Sharp,2_ >= 0
Y_tilde_Panacea_Biotec,2_ >= 0
Y_tilde_PT_Bio,2_ >= 0
Y_tilde_Sanofi,2_ >= 0
Y_tilde_Serum_Institute,2_ >= 0
Y_tilde_Pfizer,2_ >= 0
Y_tilde_AJ_Vaccines,3_ >= 0
Y_tilde_BB_NCIPD,3_ >= 0
Y_tilde_China_National,3_ >= 0
Y_tilde_Bharat_Biotech,3_ >= 0
Y_tilde_Bilthoven,3_ >= 0
Y_tilde_Biological_E,3_ >= 0
Y_tilde_GSK,3_ >= 0
Y_tilde_Haffkine_Bio,3_ >= 0
Y_tilde_LG_Chem,3_ >= 0
Y_tilde_Merck_Sharp,3_ >= 0
Y_tilde_Panacea_Biotec,3_ >= 0
Y_tilde_PT_Bio,3_ >= 0
Y_tilde_Sanofi,3_ >= 0
Y_tilde_Serum_Institute,3_ >= 0
Y_tilde_Pfizer,3_ >= 0
Y_tilde_AJ_Vaccines,4_ >= 0
Y_tilde_BB_NCIPD,4_ >= 0
Y_tilde_China_National,4_ >= 0
Y_tilde_Bharat_Biotech,4_ >= 0
Y_tilde_Bilthoven,4_ >= 0
Y_tilde_Biological_E,4_ >= 0
Y_tilde_GSK,4_ >= 0
Y_tilde_Haffkine_Bio,4_ >= 0
Y_tilde_LG_Chem,4_ >= 0
Y_tilde_Merck_Sharp,4_ >= 0
Y_tilde_Panacea_Biotec,4_ >= 0
Y_tilde_PT_Bio,4_ >= 0
Y_tilde_Sanofi,4_ >= 0
Y_tilde_Serum_Institute,4_ >= 0
Y_tilde_Pfizer,4_ >= 0
Y_tilde_AJ_Vaccines,5_ >= 0
Y_tilde_BB_NCIPD,5_ >= 0
Y_tilde_China_National,5_ >= 0
Y_tilde_Bharat_Biotech,5_ >= 0
Y_tilde_Bilthoven,5_ >= 0
Y_tilde_Biological_E,5_ >= 0
Y_tilde_GSK,5_ >= 0
Y_tilde_Haffkine_Bio,5_ >= 0
Y_tilde_LG_Chem,5_ >= 0
Y_tilde_Merck_Sharp,5_ >= 0
Y_tilde_Panacea_Biotec,5_ >= 0
Y_tilde_PT_Bio,5_ >= 0
Y_tilde_Sanofi,5_ >= 0
Y_tilde_Serum_Institute,5_ >= 0
Y_tilde_Pfizer,5_ >= 0
Y_tilde_AJ_Vaccines,6_ >= 0
Y_tilde_BB_NCIPD,6_ >= 0
Y_tilde_China_National,6_ >= 0
Y_tilde_Bharat_Biotech,6_ >= 0
Y_tilde_Bilthoven,6_ >= 0
Y_tilde_Biological_E,6_ >= 0
Y_tilde_GSK,6_ >= 0
Y_tilde_Haffkine_Bio,6_ >= 0
Y_tilde_LG_Chem,6_ >= 0
Y_tilde_Merck_Sharp,6_ >= 0
Y_tilde_Panacea_Biotec,6_ >= 0
Y_tilde_PT_Bio,6_ >= 0
Y_tilde_Sanofi,6_ >= 0
Y_tilde_Serum_Institute,6_ >= 0
Y_tilde_Pfizer,6_ >= 0
Y_tilde_AJ_Vaccines,7_ >= 0
Y_tilde_BB_NCIPD,7_ >= 0
Y_tilde_China_National,7_ >= 0
Y_tilde_Bharat_Biotech,7_ >= 0
Y_tilde_Bilthoven,7_ >= 0
Y_tilde_Biological_E,7_ >= 0
Y_tilde_GSK,7_ >= 0
Y_tilde_Haffkine_Bio,7_ >= 0
Y_tilde_LG_Chem,7_ >= 0
Y_tilde_Merck_Sharp,7_ >= 0
Y_tilde_Panacea_Biotec,7_ >= 0
Y_tilde_PT_Bio,7_ >= 0
Y_tilde_Sanofi,7_ >= 0
Y_tilde_Serum_Institute,7_ >= 0
Y_tilde_Pfizer,7_ >= 0
Y_tilde_AJ_Vaccines,8_ >= 0
Y_tilde_BB_NCIPD,8_ >= 0
Y_tilde_China_National,8_ >= 0
Y_tilde_Bharat_Biotech,8_ >= 0
Y_tilde_Bilthoven,8_ >= 0
Y_tilde_Biological_E,8_ >= 0
Y_tilde_GSK,8_ >= 0
Y_tilde_Haffkine_Bio,8_ >= 0
Y_tilde_LG_Chem,8_ >= 0
Y_tilde_Merck_Sharp,8_ >= 0
Y_tilde_Panacea_Biotec,8_ >= 0
Y_tilde_PT_Bio,8_ >= 0
Y_tilde_Sanofi,8_ >= 0
Y_tilde_Serum_Institute,8_ >= 0
Y_tilde_Pfizer,8_ >= 0
Y_tilde_AJ_Vaccines,9_ >= 0
Y_tilde_BB_NCIPD,9_ >= 0
Y_tilde_China_National,9_ >= 0
Y_tilde_Bharat_Biotech,9_ >= 0
Y_tilde_Bilthoven,9_ >= 0
Y_tilde_Biological_E,9_ >= 0
Y_tilde_GSK,9_ >= 0
Y_tilde_Haffkine_Bio,9_ >= 0
Y_tilde_LG_Chem,9_ >= 0
Y_tilde_Merck_Sharp,9_ >= 0
Y_tilde_Panacea_Biotec,9_ >= 0
Y_tilde_PT_Bio,9_ >= 0
Y_tilde_Sanofi,9_ >= 0
Y_tilde_Serum_Institute,9_ >= 0
Y_tilde_Pfizer,9_ >= 0
Y_tilde_AJ_Vaccines,10_ >= 0
Y_tilde_BB_NCIPD,10_ >= 0
Y_tilde_China_National,10_ >= 0
Y_tilde_Bharat_Biotech,10_ >= 0
Y_tilde_Bilthoven,10_ >= 0
Y_tilde_Biological_E,10_ >= 0
Y_tilde_GSK,10_ >= 0
Y_tilde_Haffkine_Bio,10_ >= 0
Y_tilde_LG_Chem,10_ >= 0
Y_tilde_Merck_Sharp,10_ >= 0
Y_tilde_Panacea_Biotec,10_ >= 0
Y_tilde_PT_Bio,10_ >= 0
Y_tilde_Sanofi,10_ >= 0
Y_tilde_Serum_Institute,10_ >= 0
Y_tilde_Pfizer,10_ >= 0
N_AJ_Vaccines,(1,_1)_ >= 0
N_BB_NCIPD,(1,_1)_ >= 0
N_China_National,(1,_1)_ >= 0
N_Bharat_Biotech,(1,_1)_ >= 0
N_Bilthoven,(1,_1)_ >= 0
N_Biological_E,(1,_1)_ >= 0
N_GSK,(1,_1)_ >= 0
N_Haffkine_Bio,(1,_1)_ >= 0
N_LG_Chem,(1,_1)_ >= 0
N_Merck_Sharp,(1,_1)_ >= 0
N_Panacea_Biotec,(1,_1)_ >= 0
N_PT_Bio,(1,_1)_ >= 0
N_Sanofi,(1,_1)_ >= 0
N_Serum_Institute,(1,_1)_ >= 0
N_Pfizer,(1,_1)_ >= 0
N_AJ_Vaccines,(1,_2)_ >= 0
N_BB_NCIPD,(1,_2)_ >= 0
N_China_National,(1,_2)_ >= 0
N_Bharat_Biotech,(1,_2)_ >= 0
N_Bilthoven,(1,_2)_ >= 0
N_Biological_E,(1,_2)_ >= 0
N_GSK,(1,_2)_ >= 0
N_Haffkine_Bio,(1,_2)_ >= 0
N_LG_Chem,(1,_2)_ >= 0
N_Merck_Sharp,(1,_2)_ >= 0
N_Panacea_Biotec,(1,_2)_ >= 0
N_PT_Bio,(1,_2)_ >= 0
N_Sanofi,(1,_2)_ >= 0
N_Serum_Institute,(1,_2)_ >= 0
N_Pfizer,(1,_2)_ >= 0
N_AJ_Vaccines,(1,_3)_ >= 0
N_BB_NCIPD,(1,_3)_ >= 0
N_China_National,(1,_3)_ >= 0
N_Bharat_Biotech,(1,_3)_ >= 0
N_Bilthoven,(1,_3)_ >= 0
N_Biological_E,(1,_3)_ >= 0
N_GSK,(1,_3)_ >= 0
N_Haffkine_Bio,(1,_3)_ >= 0
N_LG_Chem,(1,_3)_ >= 0
N_Merck_Sharp,(1,_3)_ >= 0
N_Panacea_Biotec,(1,_3)_ >= 0
N_PT_Bio,(1,_3)_ >= 0
N_Sanofi,(1,_3)_ >= 0
N_Serum_Institute,(1,_3)_ >= 0
N_Pfizer,(1,_3)_ >= 0
N_AJ_Vaccines,(1,_4)_ >= 0
N_BB_NCIPD,(1,_4)_ >= 0
N_China_National,(1,_4)_ >= 0
N_Bharat_Biotech,(1,_4)_ >= 0
N_Bilthoven,(1,_4)_ >= 0
N_Biological_E,(1,_4)_ >= 0
N_GSK,(1,_4)_ >= 0
N_Haffkine_Bio,(1,_4)_ >= 0
N_LG_Chem,(1,_4)_ >= 0
N_Merck_Sharp,(1,_4)_ >= 0
N_Panacea_Biotec,(1,_4)_ >= 0
N_PT_Bio,(1,_4)_ >= 0
N_Sanofi,(1,_4)_ >= 0
N_Serum_Institute,(1,_4)_ >= 0
N_Pfizer,(1,_4)_ >= 0
N_AJ_Vaccines,(1,_5)_ >= 0
N_BB_NCIPD,(1,_5)_ >= 0
N_China_National,(1,_5)_ >= 0
N_Bharat_Biotech,(1,_5)_ >= 0
N_Bilthoven,(1,_5)_ >= 0
N_Biological_E,(1,_5)_ >= 0
N_GSK,(1,_5)_ >= 0
N_Haffkine_Bio,(1,_5)_ >= 0
N_LG_Chem,(1,_5)_ >= 0
N_Merck_Sharp,(1,_5)_ >= 0
N_Panacea_Biotec,(1,_5)_ >= 0
N_PT_Bio,(1,_5)_ >= 0
N_Sanofi,(1,_5)_ >= 0
N_Serum_Institute,(1,_5)_ >= 0
N_Pfizer,(1,_5)_ >= 0
N_AJ_Vaccines,(2,_2)_ >= 0
N_BB_NCIPD,(2,_2)_ >= 0
N_China_National,(2,_2)_ >= 0
N_Bharat_Biotech,(2,_2)_ >= 0
N_Bilthoven,(2,_2)_ >= 0
N_Biological_E,(2,_2)_ >= 0
N_GSK,(2,_2)_ >= 0
N_Haffkine_Bio,(2,_2)_ >= 0
N_LG_Chem,(2,_2)_ >= 0
N_Merck_Sharp,(2,_2)_ >= 0
N_Panacea_Biotec,(2,_2)_ >= 0
N_PT_Bio,(2,_2)_ >= 0
N_Sanofi,(2,_2)_ >= 0
N_Serum_Institute,(2,_2)_ >= 0
N_Pfizer,(2,_2)_ >= 0
N_AJ_Vaccines,(2,_3)_ >= 0
N_BB_NCIPD,(2,_3)_ >= 0
N_China_National,(2,_3)_ >= 0
N_Bharat_Biotech,(2,_3)_ >= 0
N_Bilthoven,(2,_3)_ >= 0
N_Biological_E,(2,_3)_ >= 0
N_GSK,(2,_3)_ >= 0
N_Haffkine_Bio,(2,_3)_ >= 0
N_LG_Chem,(2,_3)_ >= 0
N_Merck_Sharp,(2,_3)_ >= 0
N_Panacea_Biotec,(2,_3)_ >= 0
N_PT_Bio,(2,_3)_ >= 0
N_Sanofi,(2,_3)_ >= 0
N_Serum_Institute,(2,_3)_ >= 0
N_Pfizer,(2,_3)_ >= 0
N_AJ_Vaccines,(2,_4)_ >= 0
N_BB_NCIPD,(2,_4)_ >= 0
N_China_National,(2,_4)_ >= 0
N_Bharat_Biotech,(2,_4)_ >= 0
N_Bilthoven,(2,_4)_ >= 0
N_Biological_E,(2,_4)_ >= 0
N_GSK,(2,_4)_ >= 0
N_Haffkine_Bio,(2,_4)_ >= 0
N_LG_Chem,(2,_4)_ >= 0
N_Merck_Sharp,(2,_4)_ >= 0
N_Panacea_Biotec,(2,_4)_ >= 0
N_PT_Bio,(2,_4)_ >= 0
N_Sanofi,(2,_4)_ >= 0
N_Serum_Institute,(2,_4)_ >= 0
N_Pfizer,(2,_4)_ >= 0
N_AJ_Vaccines,(2,_5)_ >= 0
N_BB_NCIPD,(2,_5)_ >= 0
N_China_National,(2,_5)_ >= 0
N_Bharat_Biotech,(2,_5)_ >= 0
N_Bilthoven,(2,_5)_ >= 0
N_Biological_E,(2,_5)_ >= 0
N_GSK,(2,_5)_ >= 0
N_Haffkine_Bio,(2,_5)_ >= 0
N_LG_Chem,(2,_5)_ >= 0
N_Merck_Sharp,(2,_5)_ >= 0
N_Panacea_Biotec,(2,_5)_ >= 0
N_PT_Bio,(2,_5)_ >= 0
N_Sanofi,(2,_5)_ >= 0
N_Serum_Institute,(2,_5)_ >= 0
N_Pfizer,(2,_5)_ >= 0
N_AJ_Vaccines,(2,_6)_ >= 0
N_BB_NCIPD,(2,_6)_ >= 0
N_China_National,(2,_6)_ >= 0
N_Bharat_Biotech,(2,_6)_ >= 0
N_Bilthoven,(2,_6)_ >= 0
N_Biological_E,(2,_6)_ >= 0
N_GSK,(2,_6)_ >= 0
N_Haffkine_Bio,(2,_6)_ >= 0
N_LG_Chem,(2,_6)_ >= 0
N_Merck_Sharp,(2,_6)_ >= 0
N_Panacea_Biotec,(2,_6)_ >= 0
N_PT_Bio,(2,_6)_ >= 0
N_Sanofi,(2,_6)_ >= 0
N_Serum_Institute,(2,_6)_ >= 0
N_Pfizer,(2,_6)_ >= 0
N_AJ_Vaccines,(3,_3)_ >= 0
N_BB_NCIPD,(3,_3)_ >= 0
N_China_National,(3,_3)_ >= 0
N_Bharat_Biotech,(3,_3)_ >= 0
N_Bilthoven,(3,_3)_ >= 0
N_Biological_E,(3,_3)_ >= 0
N_GSK,(3,_3)_ >= 0
N_Haffkine_Bio,(3,_3)_ >= 0
N_LG_Chem,(3,_3)_ >= 0
N_Merck_Sharp,(3,_3)_ >= 0
N_Panacea_Biotec,(3,_3)_ >= 0
N_PT_Bio,(3,_3)_ >= 0
N_Sanofi,(3,_3)_ >= 0
N_Serum_Institute,(3,_3)_ >= 0
N_Pfizer,(3,_3)_ >= 0
N_AJ_Vaccines,(3,_4)_ >= 0
N_BB_NCIPD,(3,_4)_ >= 0
N_China_National,(3,_4)_ >= 0
N_Bharat_Biotech,(3,_4)_ >= 0
N_Bilthoven,(3,_4)_ >= 0
N_Biological_E,(3,_4)_ >= 0
N_GSK,(3,_4)_ >= 0
N_Haffkine_Bio,(3,_4)_ >= 0
N_LG_Chem,(3,_4)_ >= 0
N_Merck_Sharp,(3,_4)_ >= 0
N_Panacea_Biotec,(3,_4)_ >= 0
N_PT_Bio,(3,_4)_ >= 0
N_Sanofi,(3,_4)_ >= 0
N_Serum_Institute,(3,_4)_ >= 0
N_Pfizer,(3,_4)_ >= 0
N_AJ_Vaccines,(3,_5)_ >= 0
N_BB_NCIPD,(3,_5)_ >= 0
N_China_National,(3,_5)_ >= 0
N_Bharat_Biotech,(3,_5)_ >= 0
N_Bilthoven,(3,_5)_ >= 0
N_Biological_E,(3,_5)_ >= 0
N_GSK,(3,_5)_ >= 0
N_Haffkine_Bio,(3,_5)_ >= 0
N_LG_Chem,(3,_5)_ >= 0
N_Merck_Sharp,(3,_5)_ >= 0
N_Panacea_Biotec,(3,_5)_ >= 0
N_PT_Bio,(3,_5)_ >= 0
N_Sanofi,(3,_5)_ >= 0
N_Serum_Institute,(3,_5)_ >= 0
N_Pfizer,(3,_5)_ >= 0
N_AJ_Vaccines,(3,_6)_ >= 0
N_BB_NCIPD,(3,_6)_ >= 0
N_China_National,(3,_6)_ >= 0
N_Bharat_Biotech,(3,_6)_ >= 0
N_Bilthoven,(3,_6)_ >= 0
N_Biological_E,(3,_6)_ >= 0
N_GSK,(3,_6)_ >= 0
N_Haffkine_Bio,(3,_6)_ >= 0
N_LG_Chem,(3,_6)_ >= 0
N_Merck_Sharp,(3,_6)_ >= 0
N_Panacea_Biotec,(3,_6)_ >= 0
N_PT_Bio,(3,_6)_ >= 0
N_Sanofi,(3,_6)_ >= 0
N_Serum_Institute,(3,_6)_ >= 0
N_Pfizer,(3,_6)_ >= 0
N_AJ_Vaccines,(3,_7)_ >= 0
N_BB_NCIPD,(3,_7)_ >= 0
N_China_National,(3,_7)_ >= 0
N_Bharat_Biotech,(3,_7)_ >= 0
N_Bilthoven,(3,_7)_ >= 0
N_Biological_E,(3,_7)_ >= 0
N_GSK,(3,_7)_ >= 0
N_Haffkine_Bio,(3,_7)_ >= 0
N_LG_Chem,(3,_7)_ >= 0
N_Merck_Sharp,(3,_7)_ >= 0
N_Panacea_Biotec,(3,_7)_ >= 0
N_PT_Bio,(3,_7)_ >= 0
N_Sanofi,(3,_7)_ >= 0
N_Serum_Institute,(3,_7)_ >= 0
N_Pfizer,(3,_7)_ >= 0
N_AJ_Vaccines,(4,_4)_ >= 0
N_BB_NCIPD,(4,_4)_ >= 0
N_China_National,(4,_4)_ >= 0
N_Bharat_Biotech,(4,_4)_ >= 0
N_Bilthoven,(4,_4)_ >= 0
N_Biological_E,(4,_4)_ >= 0
N_GSK,(4,_4)_ >= 0
N_Haffkine_Bio,(4,_4)_ >= 0
N_LG_Chem,(4,_4)_ >= 0
N_Merck_Sharp,(4,_4)_ >= 0
N_Panacea_Biotec,(4,_4)_ >= 0
N_PT_Bio,(4,_4)_ >= 0
N_Sanofi,(4,_4)_ >= 0
N_Serum_Institute,(4,_4)_ >= 0
N_Pfizer,(4,_4)_ >= 0
N_AJ_Vaccines,(4,_5)_ >= 0
N_BB_NCIPD,(4,_5)_ >= 0
N_China_National,(4,_5)_ >= 0
N_Bharat_Biotech,(4,_5)_ >= 0
N_Bilthoven,(4,_5)_ >= 0
N_Biological_E,(4,_5)_ >= 0
N_GSK,(4,_5)_ >= 0
N_Haffkine_Bio,(4,_5)_ >= 0
N_LG_Chem,(4,_5)_ >= 0
N_Merck_Sharp,(4,_5)_ >= 0
N_Panacea_Biotec,(4,_5)_ >= 0
N_PT_Bio,(4,_5)_ >= 0
N_Sanofi,(4,_5)_ >= 0
N_Serum_Institute,(4,_5)_ >= 0
N_Pfizer,(4,_5)_ >= 0
N_AJ_Vaccines,(4,_6)_ >= 0
N_BB_NCIPD,(4,_6)_ >= 0
N_China_National,(4,_6)_ >= 0
N_Bharat_Biotech,(4,_6)_ >= 0
N_Bilthoven,(4,_6)_ >= 0
N_Biological_E,(4,_6)_ >= 0
N_GSK,(4,_6)_ >= 0
N_Haffkine_Bio,(4,_6)_ >= 0
N_LG_Chem,(4,_6)_ >= 0
N_Merck_Sharp,(4,_6)_ >= 0
N_Panacea_Biotec,(4,_6)_ >= 0
N_PT_Bio,(4,_6)_ >= 0
N_Sanofi,(4,_6)_ >= 0
N_Serum_Institute,(4,_6)_ >= 0
N_Pfizer,(4,_6)_ >= 0
N_AJ_Vaccines,(4,_7)_ >= 0
N_BB_NCIPD,(4,_7)_ >= 0
N_China_National,(4,_7)_ >= 0
N_Bharat_Biotech,(4,_7)_ >= 0
N_Bilthoven,(4,_7)_ >= 0
N_Biological_E,(4,_7)_ >= 0
N_GSK,(4,_7)_ >= 0
N_Haffkine_Bio,(4,_7)_ >= 0
N_LG_Chem,(4,_7)_ >= 0
N_Merck_Sharp,(4,_7)_ >= 0
N_Panacea_Biotec,(4,_7)_ >= 0
N_PT_Bio,(4,_7)_ >= 0
N_Sanofi,(4,_7)_ >= 0
N_Serum_Institute,(4,_7)_ >= 0
N_Pfizer,(4,_7)_ >= 0
N_AJ_Vaccines,(4,_8)_ >= 0
N_BB_NCIPD,(4,_8)_ >= 0
N_China_National,(4,_8)_ >= 0
N_Bharat_Biotech,(4,_8)_ >= 0
N_Bilthoven,(4,_8)_ >= 0
N_Biological_E,(4,_8)_ >= 0
N_GSK,(4,_8)_ >= 0
N_Haffkine_Bio,(4,_8)_ >= 0
N_LG_Chem,(4,_8)_ >= 0
N_Merck_Sharp,(4,_8)_ >= 0
N_Panacea_Biotec,(4,_8)_ >= 0
N_PT_Bio,(4,_8)_ >= 0
N_Sanofi,(4,_8)_ >= 0
N_Serum_Institute,(4,_8)_ >= 0
N_Pfizer,(4,_8)_ >= 0
N_AJ_Vaccines,(5,_5)_ >= 0
N_BB_NCIPD,(5,_5)_ >= 0
N_China_National,(5,_5)_ >= 0
N_Bharat_Biotech,(5,_5)_ >= 0
N_Bilthoven,(5,_5)_ >= 0
N_Biological_E,(5,_5)_ >= 0
N_GSK,(5,_5)_ >= 0
N_Haffkine_Bio,(5,_5)_ >= 0
N_LG_Chem,(5,_5)_ >= 0
N_Merck_Sharp,(5,_5)_ >= 0
N_Panacea_Biotec,(5,_5)_ >= 0
N_PT_Bio,(5,_5)_ >= 0
N_Sanofi,(5,_5)_ >= 0
N_Serum_Institute,(5,_5)_ >= 0
N_Pfizer,(5,_5)_ >= 0
N_AJ_Vaccines,(5,_6)_ >= 0
N_BB_NCIPD,(5,_6)_ >= 0
N_China_National,(5,_6)_ >= 0
N_Bharat_Biotech,(5,_6)_ >= 0
N_Bilthoven,(5,_6)_ >= 0
N_Biological_E,(5,_6)_ >= 0
N_GSK,(5,_6)_ >= 0
N_Haffkine_Bio,(5,_6)_ >= 0
N_LG_Chem,(5,_6)_ >= 0
N_Merck_Sharp,(5,_6)_ >= 0
N_Panacea_Biotec,(5,_6)_ >= 0
N_PT_Bio,(5,_6)_ >= 0
N_Sanofi,(5,_6)_ >= 0
N_Serum_Institute,(5,_6)_ >= 0
N_Pfizer,(5,_6)_ >= 0
N_AJ_Vaccines,(5,_7)_ >= 0
N_BB_NCIPD,(5,_7)_ >= 0
N_China_National,(5,_7)_ >= 0
N_Bharat_Biotech,(5,_7)_ >= 0
N_Bilthoven,(5,_7)_ >= 0
N_Biological_E,(5,_7)_ >= 0
N_GSK,(5,_7)_ >= 0
N_Haffkine_Bio,(5,_7)_ >= 0
N_LG_Chem,(5,_7)_ >= 0
N_Merck_Sharp,(5,_7)_ >= 0
N_Panacea_Biotec,(5,_7)_ >= 0
N_PT_Bio,(5,_7)_ >= 0
N_Sanofi,(5,_7)_ >= 0
N_Serum_Institute,(5,_7)_ >= 0
N_Pfizer,(5,_7)_ >= 0
N_AJ_Vaccines,(5,_8)_ >= 0
N_BB_NCIPD,(5,_8)_ >= 0
N_China_National,(5,_8)_ >= 0
N_Bharat_Biotech,(5,_8)_ >= 0
N_Bilthoven,(5,_8)_ >= 0
N_Biological_E,(5,_8)_ >= 0
N_GSK,(5,_8)_ >= 0
N_Haffkine_Bio,(5,_8)_ >= 0
N_LG_Chem,(5,_8)_ >= 0
N_Merck_Sharp,(5,_8)_ >= 0
N_Panacea_Biotec,(5,_8)_ >= 0
N_PT_Bio,(5,_8)_ >= 0
N_Sanofi,(5,_8)_ >= 0
N_Serum_Institute,(5,_8)_ >= 0
N_Pfizer,(5,_8)_ >= 0
N_AJ_Vaccines,(5,_9)_ >= 0
N_BB_NCIPD,(5,_9)_ >= 0
N_China_National,(5,_9)_ >= 0
N_Bharat_Biotech,(5,_9)_ >= 0
N_Bilthoven,(5,_9)_ >= 0
N_Biological_E,(5,_9)_ >= 0
N_GSK,(5,_9)_ >= 0
N_Haffkine_Bio,(5,_9)_ >= 0
N_LG_Chem,(5,_9)_ >= 0
N_Merck_Sharp,(5,_9)_ >= 0
N_Panacea_Biotec,(5,_9)_ >= 0
N_PT_Bio,(5,_9)_ >= 0
N_Sanofi,(5,_9)_ >= 0
N_Serum_Institute,(5,_9)_ >= 0
N_Pfizer,(5,_9)_ >= 0
N_AJ_Vaccines,(6,_6)_ >= 0
N_BB_NCIPD,(6,_6)_ >= 0
N_China_National,(6,_6)_ >= 0
N_Bharat_Biotech,(6,_6)_ >= 0
N_Bilthoven,(6,_6)_ >= 0
N_Biological_E,(6,_6)_ >= 0
N_GSK,(6,_6)_ >= 0
N_Haffkine_Bio,(6,_6)_ >= 0
N_LG_Chem,(6,_6)_ >= 0
N_Merck_Sharp,(6,_6)_ >= 0
N_Panacea_Biotec,(6,_6)_ >= 0
N_PT_Bio,(6,_6)_ >= 0
N_Sanofi,(6,_6)_ >= 0
N_Serum_Institute,(6,_6)_ >= 0
N_Pfizer,(6,_6)_ >= 0
N_AJ_Vaccines,(6,_7)_ >= 0
N_BB_NCIPD,(6,_7)_ >= 0
N_China_National,(6,_7)_ >= 0
N_Bharat_Biotech,(6,_7)_ >= 0
N_Bilthoven,(6,_7)_ >= 0
N_Biological_E,(6,_7)_ >= 0
N_GSK,(6,_7)_ >= 0
N_Haffkine_Bio,(6,_7)_ >= 0
N_LG_Chem,(6,_7)_ >= 0
N_Merck_Sharp,(6,_7)_ >= 0
N_Panacea_Biotec,(6,_7)_ >= 0
N_PT_Bio,(6,_7)_ >= 0
N_Sanofi,(6,_7)_ >= 0
N_Serum_Institute,(6,_7)_ >= 0
N_Pfizer,(6,_7)_ >= 0
N_AJ_Vaccines,(6,_8)_ >= 0
N_BB_NCIPD,(6,_8)_ >= 0
N_China_National,(6,_8)_ >= 0
N_Bharat_Biotech,(6,_8)_ >= 0
N_Bilthoven,(6,_8)_ >= 0
N_Biological_E,(6,_8)_ >= 0
N_GSK,(6,_8)_ >= 0
N_Haffkine_Bio,(6,_8)_ >= 0
N_LG_Chem,(6,_8)_ >= 0
N_Merck_Sharp,(6,_8)_ >= 0
N_Panacea_Biotec,(6,_8)_ >= 0
N_PT_Bio,(6,_8)_ >= 0
N_Sanofi,(6,_8)_ >= 0
N_Serum_Institute,(6,_8)_ >= 0
N_Pfizer,(6,_8)_ >= 0
N_AJ_Vaccines,(6,_9)_ >= 0
N_BB_NCIPD,(6,_9)_ >= 0
N_China_National,(6,_9)_ >= 0
N_Bharat_Biotech,(6,_9)_ >= 0
N_Bilthoven,(6,_9)_ >= 0
N_Biological_E,(6,_9)_ >= 0
N_GSK,(6,_9)_ >= 0
N_Haffkine_Bio,(6,_9)_ >= 0
N_LG_Chem,(6,_9)_ >= 0
N_Merck_Sharp,(6,_9)_ >= 0
N_Panacea_Biotec,(6,_9)_ >= 0
N_PT_Bio,(6,_9)_ >= 0
N_Sanofi,(6,_9)_ >= 0
N_Serum_Institute,(6,_9)_ >= 0
N_Pfizer,(6,_9)_ >= 0
N_AJ_Vaccines,(6,_10)_ >= 0
N_BB_NCIPD,(6,_10)_ >= 0
N_China_National,(6,_10)_ >= 0
N_Bharat_Biotech,(6,_10)_ >= 0
N_Bilthoven,(6,_10)_ >= 0
N_Biological_E,(6,_10)_ >= 0
N_GSK,(6,_10)_ >= 0
N_Haffkine_Bio,(6,_10)_ >= 0
N_LG_Chem,(6,_10)_ >= 0
N_Merck_Sharp,(6,_10)_ >= 0
N_Panacea_Biotec,(6,_10)_ >= 0
N_PT_Bio,(6,_10)_ >= 0
N_Sanofi,(6,_10)_ >= 0
N_Serum_Institute,(6,_10)_ >= 0
N_Pfizer,(6,_10)_ >= 0
N_AJ_Vaccines,(7,_7)_ >= 0
N_BB_NCIPD,(7,_7)_ >= 0
N_China_National,(7,_7)_ >= 0
N_Bharat_Biotech,(7,_7)_ >= 0
N_Bilthoven,(7,_7)_ >= 0
N_Biological_E,(7,_7)_ >= 0
N_GSK,(7,_7)_ >= 0
N_Haffkine_Bio,(7,_7)_ >= 0
N_LG_Chem,(7,_7)_ >= 0
N_Merck_Sharp,(7,_7)_ >= 0
N_Panacea_Biotec,(7,_7)_ >= 0
N_PT_Bio,(7,_7)_ >= 0
N_Sanofi,(7,_7)_ >= 0
N_Serum_Institute,(7,_7)_ >= 0
N_Pfizer,(7,_7)_ >= 0
N_AJ_Vaccines,(7,_8)_ >= 0
N_BB_NCIPD,(7,_8)_ >= 0
N_China_National,(7,_8)_ >= 0
N_Bharat_Biotech,(7,_8)_ >= 0
N_Bilthoven,(7,_8)_ >= 0
N_Biological_E,(7,_8)_ >= 0
N_GSK,(7,_8)_ >= 0
N_Haffkine_Bio,(7,_8)_ >= 0
N_LG_Chem,(7,_8)_ >= 0
N_Merck_Sharp,(7,_8)_ >= 0
N_Panacea_Biotec,(7,_8)_ >= 0
N_PT_Bio,(7,_8)_ >= 0
N_Sanofi,(7,_8)_ >= 0
N_Serum_Institute,(7,_8)_ >= 0
N_Pfizer,(7,_8)_ >= 0
N_AJ_Vaccines,(7,_9)_ >= 0
N_BB_NCIPD,(7,_9)_ >= 0
N_China_National,(7,_9)_ >= 0
N_Bharat_Biotech,(7,_9)_ >= 0
N_Bilthoven,(7,_9)_ >= 0
N_Biological_E,(7,_9)_ >= 0
N_GSK,(7,_9)_ >= 0
N_Haffkine_Bio,(7,_9)_ >= 0
N_LG_Chem,(7,_9)_ >= 0
N_Merck_Sharp,(7,_9)_ >= 0
N_Panacea_Biotec,(7,_9)_ >= 0
N_PT_Bio,(7,_9)_ >= 0
N_Sanofi,(7,_9)_ >= 0
N_Serum_Institute,(7,_9)_ >= 0
N_Pfizer,(7,_9)_ >= 0
N_AJ_Vaccines,(7,_10)_ >= 0
N_BB_NCIPD,(7,_10)_ >= 0
N_China_National,(7,_10)_ >= 0
N_Bharat_Biotech,(7,_10)_ >= 0
N_Bilthoven,(7,_10)_ >= 0
N_Biological_E,(7,_10)_ >= 0
N_GSK,(7,_10)_ >= 0
N_Haffkine_Bio,(7,_10)_ >= 0
N_LG_Chem,(7,_10)_ >= 0
N_Merck_Sharp,(7,_10)_ >= 0
N_Panacea_Biotec,(7,_10)_ >= 0
N_PT_Bio,(7,_10)_ >= 0
N_Sanofi,(7,_10)_ >= 0
N_Serum_Institute,(7,_10)_ >= 0
N_Pfizer,(7,_10)_ >= 0
N_AJ_Vaccines,(8,_8)_ >= 0
N_BB_NCIPD,(8,_8)_ >= 0
N_China_National,(8,_8)_ >= 0
N_Bharat_Biotech,(8,_8)_ >= 0
N_Bilthoven,(8,_8)_ >= 0
N_Biological_E,(8,_8)_ >= 0
N_GSK,(8,_8)_ >= 0
N_Haffkine_Bio,(8,_8)_ >= 0
N_LG_Chem,(8,_8)_ >= 0
N_Merck_Sharp,(8,_8)_ >= 0
N_Panacea_Biotec,(8,_8)_ >= 0
N_PT_Bio,(8,_8)_ >= 0
N_Sanofi,(8,_8)_ >= 0
N_Serum_Institute,(8,_8)_ >= 0
N_Pfizer,(8,_8)_ >= 0
N_AJ_Vaccines,(8,_9)_ >= 0
N_BB_NCIPD,(8,_9)_ >= 0
N_China_National,(8,_9)_ >= 0
N_Bharat_Biotech,(8,_9)_ >= 0
N_Bilthoven,(8,_9)_ >= 0
N_Biological_E,(8,_9)_ >= 0
N_GSK,(8,_9)_ >= 0
N_Haffkine_Bio,(8,_9)_ >= 0
N_LG_Chem,(8,_9)_ >= 0
N_Merck_Sharp,(8,_9)_ >= 0
N_Panacea_Biotec,(8,_9)_ >= 0
N_PT_Bio,(8,_9)_ >= 0
N_Sanofi,(8,_9)_ >= 0
N_Serum_Institute,(8,_9)_ >= 0
N_Pfizer,(8,_9)_ >= 0
N_AJ_Vaccines,(8,_10)_ >= 0
N_BB_NCIPD,(8,_10)_ >= 0
N_China_National,(8,_10)_ >= 0
N_Bharat_Biotech,(8,_10)_ >= 0
N_Bilthoven,(8,_10)_ >= 0
N_Biological_E,(8,_10)_ >= 0
N_GSK,(8,_10)_ >= 0
N_Haffkine_Bio,(8,_10)_ >= 0
N_LG_Chem,(8,_10)_ >= 0
N_Merck_Sharp,(8,_10)_ >= 0
N_Panacea_Biotec,(8,_10)_ >= 0
N_PT_Bio,(8,_10)_ >= 0
N_Sanofi,(8,_10)_ >= 0
N_Serum_Institute,(8,_10)_ >= 0
N_Pfizer,(8,_10)_ >= 0
N_AJ_Vaccines,(9,_9)_ >= 0
N_BB_NCIPD,(9,_9)_ >= 0
N_China_National,(9,_9)_ >= 0
N_Bharat_Biotech,(9,_9)_ >= 0
N_Bilthoven,(9,_9)_ >= 0
N_Biological_E,(9,_9)_ >= 0
N_GSK,(9,_9)_ >= 0
N_Haffkine_Bio,(9,_9)_ >= 0
N_LG_Chem,(9,_9)_ >= 0
N_Merck_Sharp,(9,_9)_ >= 0
N_Panacea_Biotec,(9,_9)_ >= 0
N_PT_Bio,(9,_9)_ >= 0
N_Sanofi,(9,_9)_ >= 0
N_Serum_Institute,(9,_9)_ >= 0
N_Pfizer,(9,_9)_ >= 0
N_AJ_Vaccines,(9,_10)_ >= 0
N_BB_NCIPD,(9,_10)_ >= 0
N_China_National,(9,_10)_ >= 0
N_Bharat_Biotech,(9,_10)_ >= 0
N_Bilthoven,(9,_10)_ >= 0
N_Biological_E,(9,_10)_ >= 0
N_GSK,(9,_10)_ >= 0
N_Haffkine_Bio,(9,_10)_ >= 0
N_LG_Chem,(9,_10)_ >= 0
N_Merck_Sharp,(9,_10)_ >= 0
N_Panacea_Biotec,(9,_10)_ >= 0
N_PT_Bio,(9,_10)_ >= 0
N_Sanofi,(9,_10)_ >= 0
N_Serum_Institute,(9,_10)_ >= 0
N_Pfizer,(9,_10)_ >= 0
N_AJ_Vaccines,(10,_10)_ >= 0
N_BB_NCIPD,(10,_10)_ >= 0
N_China_National,(10,_10)_ >= 0
N_Bharat_Biotech,(10,_10)_ >= 0
N_Bilthoven,(10,_10)_ >= 0
N_Biological_E,(10,_10)_ >= 0
N_GSK,(10,_10)_ >= 0
N_Haffkine_Bio,(10,_10)_ >= 0
N_LG_Chem,(10,_10)_ >= 0
N_Merck_Sharp,(10,_10)_ >= 0
N_Panacea_Biotec,(10,_10)_ >= 0
N_PT_Bio,(10,_10)_ >= 0
N_Sanofi,(10,_10)_ >= 0
N_Serum_Institute,(10,_10)_ >= 0
N_Pfizer,(10,_10)_ >= 0
Binary
F_Measles,(1,_1)_
F_Mumps,(1,_1)_
F_Rubella,(1,_1)_
F_Diphtheria,(1,_1)_
F_Tetanus,(1,_1)_
F_Pertussis,(1,_1)_
F_Hepatitis_B,(1,_1)_
F_Hib,(1,_1)_
F_Polio,(1,_1)_
F_HPV,(1,_1)_
F_Rotavirus,(1,_1)_
F_PCV,(1,_1)_
F_Measles,(1,_2)_
F_Mumps,(1,_2)_
F_Rubella,(1,_2)_
F_Diphtheria,(1,_2)_
F_Tetanus,(1,_2)_
F_Pertussis,(1,_2)_
F_Hepatitis_B,(1,_2)_
F_Hib,(1,_2)_
F_Polio,(1,_2)_
F_HPV,(1,_2)_
F_Rotavirus,(1,_2)_
F_PCV,(1,_2)_
F_Measles,(1,_3)_
F_Mumps,(1,_3)_
F_Rubella,(1,_3)_
F_Diphtheria,(1,_3)_
F_Tetanus,(1,_3)_
F_Pertussis,(1,_3)_
F_Hepatitis_B,(1,_3)_
F_Hib,(1,_3)_
F_Polio,(1,_3)_
F_HPV,(1,_3)_
F_Rotavirus,(1,_3)_
F_PCV,(1,_3)_
F_Measles,(1,_4)_
F_Mumps,(1,_4)_
F_Rubella,(1,_4)_
F_Diphtheria,(1,_4)_
F_Tetanus,(1,_4)_
F_Pertussis,(1,_4)_
F_Hepatitis_B,(1,_4)_
F_Hib,(1,_4)_
F_Polio,(1,_4)_
F_HPV,(1,_4)_
F_Rotavirus,(1,_4)_
F_PCV,(1,_4)_
F_Measles,(1,_5)_
F_Mumps,(1,_5)_
F_Rubella,(1,_5)_
F_Diphtheria,(1,_5)_
F_Tetanus,(1,_5)_
F_Pertussis,(1,_5)_
F_Hepatitis_B,(1,_5)_
F_Hib,(1,_5)_
F_Polio,(1,_5)_
F_HPV,(1,_5)_
F_Rotavirus,(1,_5)_
F_PCV,(1,_5)_
F_Measles,(2,_2)_
F_Mumps,(2,_2)_
F_Rubella,(2,_2)_
F_Diphtheria,(2,_2)_
F_Tetanus,(2,_2)_
F_Pertussis,(2,_2)_
F_Hepatitis_B,(2,_2)_
F_Hib,(2,_2)_
F_Polio,(2,_2)_
F_HPV,(2,_2)_
F_Rotavirus,(2,_2)_
F_PCV,(2,_2)_
F_Measles,(2,_3)_
F_Mumps,(2,_3)_
F_Rubella,(2,_3)_
F_Diphtheria,(2,_3)_
F_Tetanus,(2,_3)_
F_Pertussis,(2,_3)_
F_Hepatitis_B,(2,_3)_
F_Hib,(2,_3)_
F_Polio,(2,_3)_
F_HPV,(2,_3)_
F_Rotavirus,(2,_3)_
F_PCV,(2,_3)_
F_Measles,(2,_4)_
F_Mumps,(2,_4)_
F_Rubella,(2,_4)_
F_Diphtheria,(2,_4)_
F_Tetanus,(2,_4)_
F_Pertussis,(2,_4)_
F_Hepatitis_B,(2,_4)_
F_Hib,(2,_4)_
F_Polio,(2,_4)_
F_HPV,(2,_4)_
F_Rotavirus,(2,_4)_
F_PCV,(2,_4)_
F_Measles,(2,_5)_
F_Mumps,(2,_5)_
F_Rubella,(2,_5)_
F_Diphtheria,(2,_5)_
F_Tetanus,(2,_5)_
F_Pertussis,(2,_5)_
F_Hepatitis_B,(2,_5)_
F_Hib,(2,_5)_
F_Polio,(2,_5)_
F_HPV,(2,_5)_
F_Rotavirus,(2,_5)_
F_PCV,(2,_5)_
F_Measles,(2,_6)_
F_Mumps,(2,_6)_
F_Rubella,(2,_6)_
F_Diphtheria,(2,_6)_
F_Tetanus,(2,_6)_
F_Pertussis,(2,_6)_
F_Hepatitis_B,(2,_6)_
F_Hib,(2,_6)_
F_Polio,(2,_6)_
F_HPV,(2,_6)_
F_Rotavirus,(2,_6)_
F_PCV,(2,_6)_
F_Measles,(3,_3)_
F_Mumps,(3,_3)_
F_Rubella,(3,_3)_
F_Diphtheria,(3,_3)_
F_Tetanus,(3,_3)_
F_Pertussis,(3,_3)_
F_Hepatitis_B,(3,_3)_
F_Hib,(3,_3)_
F_Polio,(3,_3)_
F_HPV,(3,_3)_
F_Rotavirus,(3,_3)_
F_PCV,(3,_3)_
F_Measles,(3,_4)_
F_Mumps,(3,_4)_
F_Rubella,(3,_4)_
F_Diphtheria,(3,_4)_
F_Tetanus,(3,_4)_
F_Pertussis,(3,_4)_
F_Hepatitis_B,(3,_4)_
F_Hib,(3,_4)_
F_Polio,(3,_4)_
F_HPV,(3,_4)_
F_Rotavirus,(3,_4)_
F_PCV,(3,_4)_
F_Measles,(3,_5)_
F_Mumps,(3,_5)_
F_Rubella,(3,_5)_
F_Diphtheria,(3,_5)_
F_Tetanus,(3,_5)_
F_Pertussis,(3,_5)_
F_Hepatitis_B,(3,_5)_
F_Hib,(3,_5)_
F_Polio,(3,_5)_
F_HPV,(3,_5)_
F_Rotavirus,(3,_5)_
F_PCV,(3,_5)_
F_Measles,(3,_6)_
F_Mumps,(3,_6)_
F_Rubella,(3,_6)_
F_Diphtheria,(3,_6)_
F_Tetanus,(3,_6)_
F_Pertussis,(3,_6)_
F_Hepatitis_B,(3,_6)_
F_Hib,(3,_6)_
F_Polio,(3,_6)_
F_HPV,(3,_6)_
F_Rotavirus,(3,_6)_
F_PCV,(3,_6)_
F_Measles,(3,_7)_
F_Mumps,(3,_7)_
F_Rubella,(3,_7)_
F_Diphtheria,(3,_7)_
F_Tetanus,(3,_7)_
F_Pertussis,(3,_7)_
F_Hepatitis_B,(3,_7)_
F_Hib,(3,_7)_
F_Polio,(3,_7)_
F_HPV,(3,_7)_
F_Rotavirus,(3,_7)_
F_PCV,(3,_7)_
F_Measles,(4,_4)_
F_Mumps,(4,_4)_
F_Rubella,(4,_4)_
F_Diphtheria,(4,_4)_
F_Tetanus,(4,_4)_
F_Pertussis,(4,_4)_
F_Hepatitis_B,(4,_4)_
F_Hib,(4,_4)_
F_Polio,(4,_4)_
F_HPV,(4,_4)_
F_Rotavirus,(4,_4)_
F_PCV,(4,_4)_
F_Measles,(4,_5)_
F_Mumps,(4,_5)_
F_Rubella,(4,_5)_
F_Diphtheria,(4,_5)_
F_Tetanus,(4,_5)_
F_Pertussis,(4,_5)_
F_Hepatitis_B,(4,_5)_
F_Hib,(4,_5)_
F_Polio,(4,_5)_
F_HPV,(4,_5)_
F_Rotavirus,(4,_5)_
F_PCV,(4,_5)_
F_Measles,(4,_6)_
F_Mumps,(4,_6)_
F_Rubella,(4,_6)_
F_Diphtheria,(4,_6)_
F_Tetanus,(4,_6)_
F_Pertussis,(4,_6)_
F_Hepatitis_B,(4,_6)_
F_Hib,(4,_6)_
F_Polio,(4,_6)_
F_HPV,(4,_6)_
F_Rotavirus,(4,_6)_
F_PCV,(4,_6)_
F_Measles,(4,_7)_
F_Mumps,(4,_7)_
F_Rubella,(4,_7)_
F_Diphtheria,(4,_7)_
F_Tetanus,(4,_7)_
F_Pertussis,(4,_7)_
F_Hepatitis_B,(4,_7)_
F_Hib,(4,_7)_
F_Polio,(4,_7)_
F_HPV,(4,_7)_
F_Rotavirus,(4,_7)_
F_PCV,(4,_7)_
F_Measles,(4,_8)_
F_Mumps,(4,_8)_
F_Rubella,(4,_8)_
F_Diphtheria,(4,_8)_
F_Tetanus,(4,_8)_
F_Pertussis,(4,_8)_
F_Hepatitis_B,(4,_8)_
F_Hib,(4,_8)_
F_Polio,(4,_8)_
F_HPV,(4,_8)_
F_Rotavirus,(4,_8)_
F_PCV,(4,_8)_
F_Measles,(5,_5)_
F_Mumps,(5,_5)_
F_Rubella,(5,_5)_
F_Diphtheria,(5,_5)_
F_Tetanus,(5,_5)_
F_Pertussis,(5,_5)_
F_Hepatitis_B,(5,_5)_
F_Hib,(5,_5)_
F_Polio,(5,_5)_
F_HPV,(5,_5)_
F_Rotavirus,(5,_5)_
F_PCV,(5,_5)_
F_Measles,(5,_6)_
F_Mumps,(5,_6)_
F_Rubella,(5,_6)_
F_Diphtheria,(5,_6)_
F_Tetanus,(5,_6)_
F_Pertussis,(5,_6)_
F_Hepatitis_B,(5,_6)_
F_Hib,(5,_6)_
F_Polio,(5,_6)_
F_HPV,(5,_6)_
F_Rotavirus,(5,_6)_
F_PCV,(5,_6)_
F_Measles,(5,_7)_
F_Mumps,(5,_7)_
F_Rubella,(5,_7)_
F_Diphtheria,(5,_7)_
F_Tetanus,(5,_7)_
F_Pertussis,(5,_7)_
F_Hepatitis_B,(5,_7)_
F_Hib,(5,_7)_
F_Polio,(5,_7)_
F_HPV,(5,_7)_
F_Rotavirus,(5,_7)_
F_PCV,(5,_7)_
F_Measles,(5,_8)_
F_Mumps,(5,_8)_
F_Rubella,(5,_8)_
F_Diphtheria,(5,_8)_
F_Tetanus,(5,_8)_
F_Pertussis,(5,_8)_
F_Hepatitis_B,(5,_8)_
F_Hib,(5,_8)_
F_Polio,(5,_8)_
F_HPV,(5,_8)_
F_Rotavirus,(5,_8)_
F_PCV,(5,_8)_
F_Measles,(5,_9)_
F_Mumps,(5,_9)_
F_Rubella,(5,_9)_
F_Diphtheria,(5,_9)_
F_Tetanus,(5,_9)_
F_Pertussis,(5,_9)_
F_Hepatitis_B,(5,_9)_
F_Hib,(5,_9)_
F_Polio,(5,_9)_
F_HPV,(5,_9)_
F_Rotavirus,(5,_9)_
F_PCV,(5,_9)_
F_Measles,(6,_6)_
F_Mumps,(6,_6)_
F_Rubella,(6,_6)_
F_Diphtheria,(6,_6)_
F_Tetanus,(6,_6)_
F_Pertussis,(6,_6)_
F_Hepatitis_B,(6,_6)_
F_Hib,(6,_6)_
F_Polio,(6,_6)_
F_HPV,(6,_6)_
F_Rotavirus,(6,_6)_
F_PCV,(6,_6)_
F_Measles,(6,_7)_
F_Mumps,(6,_7)_
F_Rubella,(6,_7)_
F_Diphtheria,(6,_7)_
F_Tetanus,(6,_7)_
F_Pertussis,(6,_7)_
F_Hepatitis_B,(6,_7)_
F_Hib,(6,_7)_
F_Polio,(6,_7)_
F_HPV,(6,_7)_
F_Rotavirus,(6,_7)_
F_PCV,(6,_7)_
F_Measles,(6,_8)_
F_Mumps,(6,_8)_
F_Rubella,(6,_8)_
F_Diphtheria,(6,_8)_
F_Tetanus,(6,_8)_
F_Pertussis,(6,_8)_
F_Hepatitis_B,(6,_8)_
F_Hib,(6,_8)_
F_Polio,(6,_8)_
F_HPV,(6,_8)_
F_Rotavirus,(6,_8)_
F_PCV,(6,_8)_
F_Measles,(6,_9)_
F_Mumps,(6,_9)_
F_Rubella,(6,_9)_
F_Diphtheria,(6,_9)_
F_Tetanus,(6,_9)_
F_Pertussis,(6,_9)_
F_Hepatitis_B,(6,_9)_
F_Hib,(6,_9)_
F_Polio,(6,_9)_
F_HPV,(6,_9)_
F_Rotavirus,(6,_9)_
F_PCV,(6,_9)_
F_Measles,(6,_10)_
F_Mumps,(6,_10)_
F_Rubella,(6,_10)_
F_Diphtheria,(6,_10)_
F_Tetanus,(6,_10)_
F_Pertussis,(6,_10)_
F_Hepatitis_B,(6,_10)_
F_Hib,(6,_10)_
F_Polio,(6,_10)_
F_HPV,(6,_10)_
F_Rotavirus,(6,_10)_
F_PCV,(6,_10)_
F_Measles,(7,_7)_
F_Mumps,(7,_7)_
F_Rubella,(7,_7)_
F_Diphtheria,(7,_7)_
F_Tetanus,(7,_7)_
F_Pertussis,(7,_7)_
F_Hepatitis_B,(7,_7)_
F_Hib,(7,_7)_
F_Polio,(7,_7)_
F_HPV,(7,_7)_
F_Rotavirus,(7,_7)_
F_PCV,(7,_7)_
F_Measles,(7,_8)_
F_Mumps,(7,_8)_
F_Rubella,(7,_8)_
F_Diphtheria,(7,_8)_
F_Tetanus,(7,_8)_
F_Pertussis,(7,_8)_
F_Hepatitis_B,(7,_8)_
F_Hib,(7,_8)_
F_Polio,(7,_8)_
F_HPV,(7,_8)_
F_Rotavirus,(7,_8)_
F_PCV,(7,_8)_
F_Measles,(7,_9)_
F_Mumps,(7,_9)_
F_Rubella,(7,_9)_
F_Diphtheria,(7,_9)_
F_Tetanus,(7,_9)_
F_Pertussis,(7,_9)_
F_Hepatitis_B,(7,_9)_
F_Hib,(7,_9)_
F_Polio,(7,_9)_
F_HPV,(7,_9)_
F_Rotavirus,(7,_9)_
F_PCV,(7,_9)_
F_Measles,(7,_10)_
F_Mumps,(7,_10)_
F_Rubella,(7,_10)_
F_Diphtheria,(7,_10)_
F_Tetanus,(7,_10)_
F_Pertussis,(7,_10)_
F_Hepatitis_B,(7,_10)_
F_Hib,(7,_10)_
F_Polio,(7,_10)_
F_HPV,(7,_10)_
F_Rotavirus,(7,_10)_
F_PCV,(7,_10)_
F_Measles,(8,_8)_
F_Mumps,(8,_8)_
F_Rubella,(8,_8)_
F_Diphtheria,(8,_8)_
F_Tetanus,(8,_8)_
F_Pertussis,(8,_8)_
F_Hepatitis_B,(8,_8)_
F_Hib,(8,_8)_
F_Polio,(8,_8)_
F_HPV,(8,_8)_
F_Rotavirus,(8,_8)_
F_PCV,(8,_8)_
F_Measles,(8,_9)_
F_Mumps,(8,_9)_
F_Rubella,(8,_9)_
F_Diphtheria,(8,_9)_
F_Tetanus,(8,_9)_
F_Pertussis,(8,_9)_
F_Hepatitis_B,(8,_9)_
F_Hib,(8,_9)_
F_Polio,(8,_9)_
F_HPV,(8,_9)_
F_Rotavirus,(8,_9)_
F_PCV,(8,_9)_
F_Measles,(8,_10)_
F_Mumps,(8,_10)_
F_Rubella,(8,_10)_
F_Diphtheria,(8,_10)_
F_Tetanus,(8,_10)_
F_Pertussis,(8,_10)_
F_Hepatitis_B,(8,_10)_
F_Hib,(8,_10)_
F_Polio,(8,_10)_
F_HPV,(8,_10)_
F_Rotavirus,(8,_10)_
F_PCV,(8,_10)_
F_Measles,(9,_9)_
F_Mumps,(9,_9)_
F_Rubella,(9,_9)_
F_Diphtheria,(9,_9)_
F_Tetanus,(9,_9)_
F_Pertussis,(9,_9)_
F_Hepatitis_B,(9,_9)_
F_Hib,(9,_9)_
F_Polio,(9,_9)_
F_HPV,(9,_9)_
F_Rotavirus,(9,_9)_
F_PCV,(9,_9)_
F_Measles,(9,_10)_
F_Mumps,(9,_10)_
F_Rubella,(9,_10)_
F_Diphtheria,(9,_10)_
F_Tetanus,(9,_10)_
F_Pertussis,(9,_10)_
F_Hepatitis_B,(9,_10)_
F_Hib,(9,_10)_
F_Polio,(9,_10)_
F_HPV,(9,_10)_
F_Rotavirus,(9,_10)_
F_PCV,(9,_10)_
F_Measles,(10,_10)_
F_Mumps,(10,_10)_
F_Rubella,(10,_10)_
F_Diphtheria,(10,_10)_
F_Tetanus,(10,_10)_
F_Pertussis,(10,_10)_
F_Hepatitis_B,(10,_10)_
F_Hib,(10,_10)_
F_Polio,(10,_10)_
F_HPV,(10,_10)_
F_Rotavirus,(10,_10)_
F_PCV,(10,_10)_
Y_AJ_Vaccines,1_
Y_BB_NCIPD,1_
Y_China_National,1_
Y_Bharat_Biotech,1_
Y_Bilthoven,1_
Y_Biological_E,1_
Y_GSK,1_
Y_Haffkine_Bio,1_
Y_LG_Chem,1_
Y_Merck_Sharp,1_
Y_Panacea_Biotec,1_
Y_PT_Bio,1_
Y_Sanofi,1_
Y_Serum_Institute,1_
Y_Pfizer,1_
Y_AJ_Vaccines,2_
Y_BB_NCIPD,2_
Y_China_National,2_
Y_Bharat_Biotech,2_
Y_Bilthoven,2_
Y_Biological_E,2_
Y_GSK,2_
Y_Haffkine_Bio,2_
Y_LG_Chem,2_
Y_Merck_Sharp,2_
Y_Panacea_Biotec,2_
Y_PT_Bio,2_
Y_Sanofi,2_
Y_Serum_Institute,2_
Y_Pfizer,2_
Y_AJ_Vaccines,3_
Y_BB_NCIPD,3_
Y_China_National,3_
Y_Bharat_Biotech,3_
Y_Bilthoven,3_
Y_Biological_E,3_
Y_GSK,3_
Y_Haffkine_Bio,3_
Y_LG_Chem,3_
Y_Merck_Sharp,3_
Y_Panacea_Biotec,3_
Y_PT_Bio,3_
Y_Sanofi,3_
Y_Serum_Institute,3_
Y_Pfizer,3_
Y_AJ_Vaccines,4_
Y_BB_NCIPD,4_
Y_China_National,4_
Y_Bharat_Biotech,4_
Y_Bilthoven,4_
Y_Biological_E,4_
Y_GSK,4_
Y_Haffkine_Bio,4_
Y_LG_Chem,4_
Y_Merck_Sharp,4_
Y_Panacea_Biotec,4_
Y_PT_Bio,4_
Y_Sanofi,4_
Y_Serum_Institute,4_
Y_Pfizer,4_
Y_AJ_Vaccines,5_
Y_BB_NCIPD,5_
Y_China_National,5_
Y_Bharat_Biotech,5_
Y_Bilthoven,5_
Y_Biological_E,5_
Y_GSK,5_
Y_Haffkine_Bio,5_
Y_LG_Chem,5_
Y_Merck_Sharp,5_
Y_Panacea_Biotec,5_
Y_PT_Bio,5_
Y_Sanofi,5_
Y_Serum_Institute,5_
Y_Pfizer,5_
Y_AJ_Vaccines,6_
Y_BB_NCIPD,6_
Y_China_National,6_
Y_Bharat_Biotech,6_
Y_Bilthoven,6_
Y_Biological_E,6_
Y_GSK,6_
Y_Haffkine_Bio,6_
Y_LG_Chem,6_
Y_Merck_Sharp,6_
Y_Panacea_Biotec,6_
Y_PT_Bio,6_
Y_Sanofi,6_
Y_Serum_Institute,6_
Y_Pfizer,6_
Y_AJ_Vaccines,7_
Y_BB_NCIPD,7_
Y_China_National,7_
Y_Bharat_Biotech,7_
Y_Bilthoven,7_
Y_Biological_E,7_
Y_GSK,7_
Y_Haffkine_Bio,7_
Y_LG_Chem,7_
Y_Merck_Sharp,7_
Y_Panacea_Biotec,7_
Y_PT_Bio,7_
Y_Sanofi,7_
Y_Serum_Institute,7_
Y_Pfizer,7_
Y_AJ_Vaccines,8_
Y_BB_NCIPD,8_
Y_China_National,8_
Y_Bharat_Biotech,8_
Y_Bilthoven,8_
Y_Biological_E,8_
Y_GSK,8_
Y_Haffkine_Bio,8_
Y_LG_Chem,8_
Y_Merck_Sharp,8_
Y_Panacea_Biotec,8_
Y_PT_Bio,8_
Y_Sanofi,8_
Y_Serum_Institute,8_
Y_Pfizer,8_
Y_AJ_Vaccines,9_
Y_BB_NCIPD,9_
Y_China_National,9_
Y_Bharat_Biotech,9_
Y_Bilthoven,9_
Y_Biological_E,9_
Y_GSK,9_
Y_Haffkine_Bio,9_
Y_LG_Chem,9_
Y_Merck_Sharp,9_
Y_Panacea_Biotec,9_
Y_PT_Bio,9_
Y_Sanofi,9_
Y_Serum_Institute,9_
Y_Pfizer,9_
Y_AJ_Vaccines,10_
Y_BB_NCIPD,10_
Y_China_National,10_
Y_Bharat_Biotech,10_
Y_Bilthoven,10_
Y_Biological_E,10_
Y_GSK,10_
Y_Haffkine_Bio,10_
Y_LG_Chem,10_
Y_Merck_Sharp,10_
Y_Panacea_Biotec,10_
Y_PT_Bio,10_
Y_Sanofi,10_
Y_Serum_Institute,10_
Y_Pfizer,10_
W_AJ_Vaccines,(1,_1)_
W_BB_NCIPD,(1,_1)_
W_China_National,(1,_1)_
W_Bharat_Biotech,(1,_1)_
W_Bilthoven,(1,_1)_
W_Biological_E,(1,_1)_
W_GSK,(1,_1)_
W_Haffkine_Bio,(1,_1)_
W_LG_Chem,(1,_1)_
W_Merck_Sharp,(1,_1)_
W_Panacea_Biotec,(1,_1)_
W_PT_Bio,(1,_1)_
W_Sanofi,(1,_1)_
W_Serum_Institute,(1,_1)_
W_Pfizer,(1,_1)_
W_AJ_Vaccines,(1,_2)_
W_BB_NCIPD,(1,_2)_
W_China_National,(1,_2)_
W_Bharat_Biotech,(1,_2)_
W_Bilthoven,(1,_2)_
W_Biological_E,(1,_2)_
W_GSK,(1,_2)_
W_Haffkine_Bio,(1,_2)_
W_LG_Chem,(1,_2)_
W_Merck_Sharp,(1,_2)_
W_Panacea_Biotec,(1,_2)_
W_PT_Bio,(1,_2)_
W_Sanofi,(1,_2)_
W_Serum_Institute,(1,_2)_
W_Pfizer,(1,_2)_
W_AJ_Vaccines,(1,_3)_
W_BB_NCIPD,(1,_3)_
W_China_National,(1,_3)_
W_Bharat_Biotech,(1,_3)_
W_Bilthoven,(1,_3)_
W_Biological_E,(1,_3)_
W_GSK,(1,_3)_
W_Haffkine_Bio,(1,_3)_
W_LG_Chem,(1,_3)_
W_Merck_Sharp,(1,_3)_
W_Panacea_Biotec,(1,_3)_
W_PT_Bio,(1,_3)_
W_Sanofi,(1,_3)_
W_Serum_Institute,(1,_3)_
W_Pfizer,(1,_3)_
W_AJ_Vaccines,(1,_4)_
W_BB_NCIPD,(1,_4)_
W_China_National,(1,_4)_
W_Bharat_Biotech,(1,_4)_
W_Bilthoven,(1,_4)_
W_Biological_E,(1,_4)_
W_GSK,(1,_4)_
W_Haffkine_Bio,(1,_4)_
W_LG_Chem,(1,_4)_
W_Merck_Sharp,(1,_4)_
W_Panacea_Biotec,(1,_4)_
W_PT_Bio,(1,_4)_
W_Sanofi,(1,_4)_
W_Serum_Institute,(1,_4)_
W_Pfizer,(1,_4)_
W_AJ_Vaccines,(1,_5)_
W_BB_NCIPD,(1,_5)_
W_China_National,(1,_5)_
W_Bharat_Biotech,(1,_5)_
W_Bilthoven,(1,_5)_
W_Biological_E,(1,_5)_
W_GSK,(1,_5)_
W_Haffkine_Bio,(1,_5)_
W_LG_Chem,(1,_5)_
W_Merck_Sharp,(1,_5)_
W_Panacea_Biotec,(1,_5)_
W_PT_Bio,(1,_5)_
W_Sanofi,(1,_5)_
W_Serum_Institute,(1,_5)_
W_Pfizer,(1,_5)_
W_AJ_Vaccines,(2,_2)_
W_BB_NCIPD,(2,_2)_
W_China_National,(2,_2)_
W_Bharat_Biotech,(2,_2)_
W_Bilthoven,(2,_2)_
W_Biological_E,(2,_2)_
W_GSK,(2,_2)_
W_Haffkine_Bio,(2,_2)_
W_LG_Chem,(2,_2)_
W_Merck_Sharp,(2,_2)_
W_Panacea_Biotec,(2,_2)_
W_PT_Bio,(2,_2)_
W_Sanofi,(2,_2)_
W_Serum_Institute,(2,_2)_
W_Pfizer,(2,_2)_
W_AJ_Vaccines,(2,_3)_
W_BB_NCIPD,(2,_3)_
W_China_National,(2,_3)_
W_Bharat_Biotech,(2,_3)_
W_Bilthoven,(2,_3)_
W_Biological_E,(2,_3)_
W_GSK,(2,_3)_
W_Haffkine_Bio,(2,_3)_
W_LG_Chem,(2,_3)_
W_Merck_Sharp,(2,_3)_
W_Panacea_Biotec,(2,_3)_
W_PT_Bio,(2,_3)_
W_Sanofi,(2,_3)_
W_Serum_Institute,(2,_3)_
W_Pfizer,(2,_3)_
W_AJ_Vaccines,(2,_4)_
W_BB_NCIPD,(2,_4)_
W_China_National,(2,_4)_
W_Bharat_Biotech,(2,_4)_
W_Bilthoven,(2,_4)_
W_Biological_E,(2,_4)_
W_GSK,(2,_4)_
W_Haffkine_Bio,(2,_4)_
W_LG_Chem,(2,_4)_
W_Merck_Sharp,(2,_4)_
W_Panacea_Biotec,(2,_4)_
W_PT_Bio,(2,_4)_
W_Sanofi,(2,_4)_
W_Serum_Institute,(2,_4)_
W_Pfizer,(2,_4)_
W_AJ_Vaccines,(2,_5)_
W_BB_NCIPD,(2,_5)_
W_China_National,(2,_5)_
W_Bharat_Biotech,(2,_5)_
W_Bilthoven,(2,_5)_
W_Biological_E,(2,_5)_
W_GSK,(2,_5)_
W_Haffkine_Bio,(2,_5)_
W_LG_Chem,(2,_5)_
W_Merck_Sharp,(2,_5)_
W_Panacea_Biotec,(2,_5)_
W_PT_Bio,(2,_5)_
W_Sanofi,(2,_5)_
W_Serum_Institute,(2,_5)_
W_Pfizer,(2,_5)_
W_AJ_Vaccines,(2,_6)_
W_BB_NCIPD,(2,_6)_
W_China_National,(2,_6)_
W_Bharat_Biotech,(2,_6)_
W_Bilthoven,(2,_6)_
W_Biological_E,(2,_6)_
W_GSK,(2,_6)_
W_Haffkine_Bio,(2,_6)_
W_LG_Chem,(2,_6)_
W_Merck_Sharp,(2,_6)_
W_Panacea_Biotec,(2,_6)_
W_PT_Bio,(2,_6)_
W_Sanofi,(2,_6)_
W_Serum_Institute,(2,_6)_
W_Pfizer,(2,_6)_
W_AJ_Vaccines,(3,_3)_
W_BB_NCIPD,(3,_3)_
W_China_National,(3,_3)_
W_Bharat_Biotech,(3,_3)_
W_Bilthoven,(3,_3)_
W_Biological_E,(3,_3)_
W_GSK,(3,_3)_
W_Haffkine_Bio,(3,_3)_
W_LG_Chem,(3,_3)_
W_Merck_Sharp,(3,_3)_
W_Panacea_Biotec,(3,_3)_
W_PT_Bio,(3,_3)_
W_Sanofi,(3,_3)_
W_Serum_Institute,(3,_3)_
W_Pfizer,(3,_3)_
W_AJ_Vaccines,(3,_4)_
W_BB_NCIPD,(3,_4)_
W_China_National,(3,_4)_
W_Bharat_Biotech,(3,_4)_
W_Bilthoven,(3,_4)_
W_Biological_E,(3,_4)_
W_GSK,(3,_4)_
W_Haffkine_Bio,(3,_4)_
W_LG_Chem,(3,_4)_
W_Merck_Sharp,(3,_4)_
W_Panacea_Biotec,(3,_4)_
W_PT_Bio,(3,_4)_
W_Sanofi,(3,_4)_
W_Serum_Institute,(3,_4)_
W_Pfizer,(3,_4)_
W_AJ_Vaccines,(3,_5)_
W_BB_NCIPD,(3,_5)_
W_China_National,(3,_5)_
W_Bharat_Biotech,(3,_5)_
W_Bilthoven,(3,_5)_
W_Biological_E,(3,_5)_
W_GSK,(3,_5)_
W_Haffkine_Bio,(3,_5)_
W_LG_Chem,(3,_5)_
W_Merck_Sharp,(3,_5)_
W_Panacea_Biotec,(3,_5)_
W_PT_Bio,(3,_5)_
W_Sanofi,(3,_5)_
W_Serum_Institute,(3,_5)_
W_Pfizer,(3,_5)_
W_AJ_Vaccines,(3,_6)_
W_BB_NCIPD,(3,_6)_
W_China_National,(3,_6)_
W_Bharat_Biotech,(3,_6)_
W_Bilthoven,(3,_6)_
W_Biological_E,(3,_6)_
W_GSK,(3,_6)_
W_Haffkine_Bio,(3,_6)_
W_LG_Chem,(3,_6)_
W_Merck_Sharp,(3,_6)_
W_Panacea_Biotec,(3,_6)_
W_PT_Bio,(3,_6)_
W_Sanofi,(3,_6)_
W_Serum_Institute,(3,_6)_
W_Pfizer,(3,_6)_
W_AJ_Vaccines,(3,_7)_
W_BB_NCIPD,(3,_7)_
W_China_National,(3,_7)_
W_Bharat_Biotech,(3,_7)_
W_Bilthoven,(3,_7)_
W_Biological_E,(3,_7)_
W_GSK,(3,_7)_
W_Haffkine_Bio,(3,_7)_
W_LG_Chem,(3,_7)_
W_Merck_Sharp,(3,_7)_
W_Panacea_Biotec,(3,_7)_
W_PT_Bio,(3,_7)_
W_Sanofi,(3,_7)_
W_Serum_Institute,(3,_7)_
W_Pfizer,(3,_7)_
W_AJ_Vaccines,(4,_4)_
W_BB_NCIPD,(4,_4)_
W_China_National,(4,_4)_
W_Bharat_Biotech,(4,_4)_
W_Bilthoven,(4,_4)_
W_Biological_E,(4,_4)_
W_GSK,(4,_4)_
W_Haffkine_Bio,(4,_4)_
W_LG_Chem,(4,_4)_
W_Merck_Sharp,(4,_4)_
W_Panacea_Biotec,(4,_4)_
W_PT_Bio,(4,_4)_
W_Sanofi,(4,_4)_
W_Serum_Institute,(4,_4)_
W_Pfizer,(4,_4)_
W_AJ_Vaccines,(4,_5)_
W_BB_NCIPD,(4,_5)_
W_China_National,(4,_5)_
W_Bharat_Biotech,(4,_5)_
W_Bilthoven,(4,_5)_
W_Biological_E,(4,_5)_
W_GSK,(4,_5)_
W_Haffkine_Bio,(4,_5)_
W_LG_Chem,(4,_5)_
W_Merck_Sharp,(4,_5)_
W_Panacea_Biotec,(4,_5)_
W_PT_Bio,(4,_5)_
W_Sanofi,(4,_5)_
W_Serum_Institute,(4,_5)_
W_Pfizer,(4,_5)_
W_AJ_Vaccines,(4,_6)_
W_BB_NCIPD,(4,_6)_
W_China_National,(4,_6)_
W_Bharat_Biotech,(4,_6)_
W_Bilthoven,(4,_6)_
W_Biological_E,(4,_6)_
W_GSK,(4,_6)_
W_Haffkine_Bio,(4,_6)_
W_LG_Chem,(4,_6)_
W_Merck_Sharp,(4,_6)_
W_Panacea_Biotec,(4,_6)_
W_PT_Bio,(4,_6)_
W_Sanofi,(4,_6)_
W_Serum_Institute,(4,_6)_
W_Pfizer,(4,_6)_
W_AJ_Vaccines,(4,_7)_
W_BB_NCIPD,(4,_7)_
W_China_National,(4,_7)_
W_Bharat_Biotech,(4,_7)_
W_Bilthoven,(4,_7)_
W_Biological_E,(4,_7)_
W_GSK,(4,_7)_
W_Haffkine_Bio,(4,_7)_
W_LG_Chem,(4,_7)_
W_Merck_Sharp,(4,_7)_
W_Panacea_Biotec,(4,_7)_
W_PT_Bio,(4,_7)_
W_Sanofi,(4,_7)_
W_Serum_Institute,(4,_7)_
W_Pfizer,(4,_7)_
W_AJ_Vaccines,(4,_8)_
W_BB_NCIPD,(4,_8)_
W_China_National,(4,_8)_
W_Bharat_Biotech,(4,_8)_
W_Bilthoven,(4,_8)_
W_Biological_E,(4,_8)_
W_GSK,(4,_8)_
W_Haffkine_Bio,(4,_8)_
W_LG_Chem,(4,_8)_
W_Merck_Sharp,(4,_8)_
W_Panacea_Biotec,(4,_8)_
W_PT_Bio,(4,_8)_
W_Sanofi,(4,_8)_
W_Serum_Institute,(4,_8)_
W_Pfizer,(4,_8)_
W_AJ_Vaccines,(5,_5)_
W_BB_NCIPD,(5,_5)_
W_China_National,(5,_5)_
W_Bharat_Biotech,(5,_5)_
W_Bilthoven,(5,_5)_
W_Biological_E,(5,_5)_
W_GSK,(5,_5)_
W_Haffkine_Bio,(5,_5)_
W_LG_Chem,(5,_5)_
W_Merck_Sharp,(5,_5)_
W_Panacea_Biotec,(5,_5)_
W_PT_Bio,(5,_5)_
W_Sanofi,(5,_5)_
W_Serum_Institute,(5,_5)_
W_Pfizer,(5,_5)_
W_AJ_Vaccines,(5,_6)_
W_BB_NCIPD,(5,_6)_
W_China_National,(5,_6)_
W_Bharat_Biotech,(5,_6)_
W_Bilthoven,(5,_6)_
W_Biological_E,(5,_6)_
W_GSK,(5,_6)_
W_Haffkine_Bio,(5,_6)_
W_LG_Chem,(5,_6)_
W_Merck_Sharp,(5,_6)_
W_Panacea_Biotec,(5,_6)_
W_PT_Bio,(5,_6)_
W_Sanofi,(5,_6)_
W_Serum_Institute,(5,_6)_
W_Pfizer,(5,_6)_
W_AJ_Vaccines,(5,_7)_
W_BB_NCIPD,(5,_7)_
W_China_National,(5,_7)_
W_Bharat_Biotech,(5,_7)_
W_Bilthoven,(5,_7)_
W_Biological_E,(5,_7)_
W_GSK,(5,_7)_
W_Haffkine_Bio,(5,_7)_
W_LG_Chem,(5,_7)_
W_Merck_Sharp,(5,_7)_
W_Panacea_Biotec,(5,_7)_
W_PT_Bio,(5,_7)_
W_Sanofi,(5,_7)_
W_Serum_Institute,(5,_7)_
W_Pfizer,(5,_7)_
W_AJ_Vaccines,(5,_8)_
W_BB_NCIPD,(5,_8)_
W_China_National,(5,_8)_
W_Bharat_Biotech,(5,_8)_
W_Bilthoven,(5,_8)_
W_Biological_E,(5,_8)_
W_GSK,(5,_8)_
W_Haffkine_Bio,(5,_8)_
W_LG_Chem,(5,_8)_
W_Merck_Sharp,(5,_8)_
W_Panacea_Biotec,(5,_8)_
W_PT_Bio,(5,_8)_
W_Sanofi,(5,_8)_
W_Serum_Institute,(5,_8)_
W_Pfizer,(5,_8)_
W_AJ_Vaccines,(5,_9)_
W_BB_NCIPD,(5,_9)_
W_China_National,(5,_9)_
W_Bharat_Biotech,(5,_9)_
W_Bilthoven,(5,_9)_
W_Biological_E,(5,_9)_
W_GSK,(5,_9)_
W_Haffkine_Bio,(5,_9)_
W_LG_Chem,(5,_9)_
W_Merck_Sharp,(5,_9)_
W_Panacea_Biotec,(5,_9)_
W_PT_Bio,(5,_9)_
W_Sanofi,(5,_9)_
W_Serum_Institute,(5,_9)_
W_Pfizer,(5,_9)_
W_AJ_Vaccines,(6,_6)_
W_BB_NCIPD,(6,_6)_
W_China_National,(6,_6)_
W_Bharat_Biotech,(6,_6)_
W_Bilthoven,(6,_6)_
W_Biological_E,(6,_6)_
W_GSK,(6,_6)_
W_Haffkine_Bio,(6,_6)_
W_LG_Chem,(6,_6)_
W_Merck_Sharp,(6,_6)_
W_Panacea_Biotec,(6,_6)_
W_PT_Bio,(6,_6)_
W_Sanofi,(6,_6)_
W_Serum_Institute,(6,_6)_
W_Pfizer,(6,_6)_
W_AJ_Vaccines,(6,_7)_
W_BB_NCIPD,(6,_7)_
W_China_National,(6,_7)_
W_Bharat_Biotech,(6,_7)_
W_Bilthoven,(6,_7)_
W_Biological_E,(6,_7)_
W_GSK,(6,_7)_
W_Haffkine_Bio,(6,_7)_
W_LG_Chem,(6,_7)_
W_Merck_Sharp,(6,_7)_
W_Panacea_Biotec,(6,_7)_
W_PT_Bio,(6,_7)_
W_Sanofi,(6,_7)_
W_Serum_Institute,(6,_7)_
W_Pfizer,(6,_7)_
W_AJ_Vaccines,(6,_8)_
W_BB_NCIPD,(6,_8)_
W_China_National,(6,_8)_
W_Bharat_Biotech,(6,_8)_
W_Bilthoven,(6,_8)_
W_Biological_E,(6,_8)_
W_GSK,(6,_8)_
W_Haffkine_Bio,(6,_8)_
W_LG_Chem,(6,_8)_
W_Merck_Sharp,(6,_8)_
W_Panacea_Biotec,(6,_8)_
W_PT_Bio,(6,_8)_
W_Sanofi,(6,_8)_
W_Serum_Institute,(6,_8)_
W_Pfizer,(6,_8)_
W_AJ_Vaccines,(6,_9)_
W_BB_NCIPD,(6,_9)_
W_China_National,(6,_9)_
W_Bharat_Biotech,(6,_9)_
W_Bilthoven,(6,_9)_
W_Biological_E,(6,_9)_
W_GSK,(6,_9)_
W_Haffkine_Bio,(6,_9)_
W_LG_Chem,(6,_9)_
W_Merck_Sharp,(6,_9)_
W_Panacea_Biotec,(6,_9)_
W_PT_Bio,(6,_9)_
W_Sanofi,(6,_9)_
W_Serum_Institute,(6,_9)_
W_Pfizer,(6,_9)_
W_AJ_Vaccines,(6,_10)_
W_BB_NCIPD,(6,_10)_
W_China_National,(6,_10)_
W_Bharat_Biotech,(6,_10)_
W_Bilthoven,(6,_10)_
W_Biological_E,(6,_10)_
W_GSK,(6,_10)_
W_Haffkine_Bio,(6,_10)_
W_LG_Chem,(6,_10)_
W_Merck_Sharp,(6,_10)_
W_Panacea_Biotec,(6,_10)_
W_PT_Bio,(6,_10)_
W_Sanofi,(6,_10)_
W_Serum_Institute,(6,_10)_
W_Pfizer,(6,_10)_
W_AJ_Vaccines,(7,_7)_
W_BB_NCIPD,(7,_7)_
W_China_National,(7,_7)_
W_Bharat_Biotech,(7,_7)_
W_Bilthoven,(7,_7)_
W_Biological_E,(7,_7)_
W_GSK,(7,_7)_
W_Haffkine_Bio,(7,_7)_
W_LG_Chem,(7,_7)_
W_Merck_Sharp,(7,_7)_
W_Panacea_Biotec,(7,_7)_
W_PT_Bio,(7,_7)_
W_Sanofi,(7,_7)_
W_Serum_Institute,(7,_7)_
W_Pfizer,(7,_7)_
W_AJ_Vaccines,(7,_8)_
W_BB_NCIPD,(7,_8)_
W_China_National,(7,_8)_
W_Bharat_Biotech,(7,_8)_
W_Bilthoven,(7,_8)_
W_Biological_E,(7,_8)_
W_GSK,(7,_8)_
W_Haffkine_Bio,(7,_8)_
W_LG_Chem,(7,_8)_
W_Merck_Sharp,(7,_8)_
W_Panacea_Biotec,(7,_8)_
W_PT_Bio,(7,_8)_
W_Sanofi,(7,_8)_
W_Serum_Institute,(7,_8)_
W_Pfizer,(7,_8)_
W_AJ_Vaccines,(7,_9)_
W_BB_NCIPD,(7,_9)_
W_China_National,(7,_9)_
W_Bharat_Biotech,(7,_9)_
W_Bilthoven,(7,_9)_
W_Biological_E,(7,_9)_
W_GSK,(7,_9)_
W_Haffkine_Bio,(7,_9)_
W_LG_Chem,(7,_9)_
W_Merck_Sharp,(7,_9)_
W_Panacea_Biotec,(7,_9)_
W_PT_Bio,(7,_9)_
W_Sanofi,(7,_9)_
W_Serum_Institute,(7,_9)_
W_Pfizer,(7,_9)_
W_AJ_Vaccines,(7,_10)_
W_BB_NCIPD,(7,_10)_
W_China_National,(7,_10)_
W_Bharat_Biotech,(7,_10)_
W_Bilthoven,(7,_10)_
W_Biological_E,(7,_10)_
W_GSK,(7,_10)_
W_Haffkine_Bio,(7,_10)_
W_LG_Chem,(7,_10)_
W_Merck_Sharp,(7,_10)_
W_Panacea_Biotec,(7,_10)_
W_PT_Bio,(7,_10)_
W_Sanofi,(7,_10)_
W_Serum_Institute,(7,_10)_
W_Pfizer,(7,_10)_
W_AJ_Vaccines,(8,_8)_
W_BB_NCIPD,(8,_8)_
W_China_National,(8,_8)_
W_Bharat_Biotech,(8,_8)_
W_Bilthoven,(8,_8)_
W_Biological_E,(8,_8)_
W_GSK,(8,_8)_
W_Haffkine_Bio,(8,_8)_
W_LG_Chem,(8,_8)_
W_Merck_Sharp,(8,_8)_
W_Panacea_Biotec,(8,_8)_
W_PT_Bio,(8,_8)_
W_Sanofi,(8,_8)_
W_Serum_Institute,(8,_8)_
W_Pfizer,(8,_8)_
W_AJ_Vaccines,(8,_9)_
W_BB_NCIPD,(8,_9)_
W_China_National,(8,_9)_
W_Bharat_Biotech,(8,_9)_
W_Bilthoven,(8,_9)_
W_Biological_E,(8,_9)_
W_GSK,(8,_9)_
W_Haffkine_Bio,(8,_9)_
W_LG_Chem,(8,_9)_
W_Merck_Sharp,(8,_9)_
W_Panacea_Biotec,(8,_9)_
W_PT_Bio,(8,_9)_
W_Sanofi,(8,_9)_
W_Serum_Institute,(8,_9)_
W_Pfizer,(8,_9)_
W_AJ_Vaccines,(8,_10)_
W_BB_NCIPD,(8,_10)_
W_China_National,(8,_10)_
W_Bharat_Biotech,(8,_10)_
W_Bilthoven,(8,_10)_
W_Biological_E,(8,_10)_
W_GSK,(8,_10)_
W_Haffkine_Bio,(8,_10)_
W_LG_Chem,(8,_10)_
W_Merck_Sharp,(8,_10)_
W_Panacea_Biotec,(8,_10)_
W_PT_Bio,(8,_10)_
W_Sanofi,(8,_10)_
W_Serum_Institute,(8,_10)_
W_Pfizer,(8,_10)_
W_AJ_Vaccines,(9,_9)_
W_BB_NCIPD,(9,_9)_
W_China_National,(9,_9)_
W_Bharat_Biotech,(9,_9)_
W_Bilthoven,(9,_9)_
W_Biological_E,(9,_9)_
W_GSK,(9,_9)_
W_Haffkine_Bio,(9,_9)_
W_LG_Chem,(9,_9)_
W_Merck_Sharp,(9,_9)_
W_Panacea_Biotec,(9,_9)_
W_PT_Bio,(9,_9)_
W_Sanofi,(9,_9)_
W_Serum_Institute,(9,_9)_
W_Pfizer,(9,_9)_
W_AJ_Vaccines,(9,_10)_
W_BB_NCIPD,(9,_10)_
W_China_National,(9,_10)_
W_Bharat_Biotech,(9,_10)_
W_Bilthoven,(9,_10)_
W_Biological_E,(9,_10)_
W_GSK,(9,_10)_
W_Haffkine_Bio,(9,_10)_
W_LG_Chem,(9,_10)_
W_Merck_Sharp,(9,_10)_
W_Panacea_Biotec,(9,_10)_
W_PT_Bio,(9,_10)_
W_Sanofi,(9,_10)_
W_Serum_Institute,(9,_10)_
W_Pfizer,(9,_10)_
W_AJ_Vaccines,(10,_10)_
W_BB_NCIPD,(10,_10)_
W_China_National,(10,_10)_
W_Bharat_Biotech,(10,_10)_
W_Bilthoven,(10,_10)_
W_Biological_E,(10,_10)_
W_GSK,(10,_10)_
W_Haffkine_Bio,(10,_10)_
W_LG_Chem,(10,_10)_
W_Merck_Sharp,(10,_10)_
W_Panacea_Biotec,(10,_10)_
W_PT_Bio,(10,_10)_
W_Sanofi,(10,_10)_
W_Serum_Institute,(10,_10)_
W_Pfizer,(10,_10)_
End
